  Job Started  at 02:31.34 18th December   2016

  Number of CPUs =     1

  Total number of configurations input =   1

*  Input for Configuration =   1                                               *

  Formula = Si59GeO120F6

  Number of irreducible atoms/shells =     312

  Total number atoms/shells =     312

  Dimensionality = 3               :  Bulk

  Charge on solid   =  -6.000000 =>neutralising background added

  Cartesian lattice vectors (Angstroms) :

       11.995572    0.000000    0.000000
       -6.004815   10.312048    0.000000
        0.041027   -0.224212   29.424660

  Cell parameters (Angstroms/Degrees):

  a =      11.9956    alpha =  90.4175
  b =      11.9330    beta  =  89.9201
  c =      29.4255    gamma = 120.2127

  Initial cell volume =        3639.798485 Angs**3

  Temperature of configuration =  0.000     K

  Pressure of configuration =         0.000 GPa

  Fractional coordinates of asymmetric unit :

   No.  Atomic       x           y          z         Charge      Occupancy
        Label      (Frac)      (Frac)     (Frac)        (e)         (Frac)
      1 Si    c    0.699600    0.375700    0.033890     4.00000    1.000000
      2 Si    c    0.617513 *  0.319773 *  0.368154 *   4.00000    1.000000
      3 Si    c    0.675502 *  0.295015 *  0.700924 *   4.00000    1.000000
      4 Si    c    0.298905 *  0.619395 *  0.535756 *   4.00000    1.000000
      5 Si    c    0.379411 *  0.677055 *  0.868363 *   4.00000    1.000000
      6 Ge    c    0.330080 *  0.718970 *  0.204670 *   4.00000    1.000000
      7 Si    c    0.368936 *  0.687339 *  0.302824 *   4.00000    1.000000
      8 Si    c    0.324267 *  0.623148 *  0.969041 *   4.00000    1.000000
      9 Si    c    0.296047 *  0.674044 *  0.636342 *   4.00000    1.000000
     10 Si    c    0.621797 *  0.298036 *  0.801627 *   4.00000    1.000000
     11 Si    c    0.677370 *  0.373414 *  0.468656 *   4.00000    1.000000
     12 Si    c    0.703883 *  0.325680 *  0.134191 *   4.00000    1.000000
     13 Si    c    0.530131 *  0.416760 *  0.968969 *   4.00000    1.000000
     14 Si    c    0.578677 *  0.110095 *  0.301164 *   4.00000    1.000000
     15 Si    c    0.884793 *  0.464962 *  0.635184 *   4.00000    1.000000
     16 Si    c    0.473096 *  0.580655 *  0.472361 *   4.00000    1.000000
     17 Si    c    0.416904 *  0.886429 *  0.803222 *   4.00000    1.000000
     18 Si    c    0.118836 *  0.539040 *  0.136634 *   4.00000    1.000000
     19 Si    c    0.416901 *  0.527604 *  0.370768 *   4.00000    1.000000
     20 Si    c    0.113308 *  0.585330 *  0.033787 *   4.00000    1.000000
     21 Si    c    0.468775 *  0.885142 *  0.701527 *   4.00000    1.000000
     22 Si    c    0.582434 *  0.469483 *  0.867228 *   4.00000    1.000000
     23 Si    c    0.888502 *  0.412851 *  0.533284 *   4.00000    1.000000
     24 Si    c    0.527215 *  0.113092 *  0.198062 *   4.00000    1.000000
     25 Si    c    0.302366 *  0.397969 *  0.853115 *   4.00000    1.000000
     26 Si    c    0.602187 *  0.900323 *  0.181723 *   4.00000    1.000000
     27 Si    c    0.098210 *  0.694868 *  0.519682 *   4.00000    1.000000
     28 Si    c    0.695968 *  0.599371 *  0.354230 *   4.00000    1.000000
     29 Si    c    0.396696 *  0.093269 *  0.686572 *   4.00000    1.000000
     30 Si    c    0.902874 *  0.302709 *  0.019027 *   4.00000    1.000000
     31 Si    c    0.400500 *  0.297939 *  0.484923 *   4.00000    1.000000
     32 Si    c    0.904226 *  0.605205 *  0.148918 *   4.00000    1.000000
     33 Si    c    0.698753 *  0.096902 *  0.816800 *   4.00000    1.000000
     34 Si    c    0.602198 *  0.699329 *  0.983674 *   4.00000    1.000000
     35 Si    c    0.094180 *  0.394357 *  0.649990 *   4.00000    1.000000
     36 Si    c    0.292371 *  0.895193 *  0.314246 *   4.00000    1.000000
     37 Si    c    0.252037 *  0.340678 *  0.953720 *   4.00000    1.000000
     38 Si    c    0.654361 *  0.904573 *  0.284990 *   4.00000    1.000000
     39 Si    c    0.087415 *  0.745008 *  0.620457 *   4.00000    1.000000
     40 Si    c    0.750144 *  0.656224 *  0.455146 *   4.00000    1.000000
     41 Si    c    0.339572 *  0.087772 *  0.787377 *   4.00000    1.000000
     42 Si    c    0.914583 *  0.258166 *  0.119614 *   4.00000    1.000000
     43 Si    c    0.338016 *  0.247085 *  0.384242 *   4.00000    1.000000
     44 Si    c    0.909343 *  0.659024 *  0.048045 *   4.00000    1.000000
     45 Si    c    0.748005 *  0.086529 *  0.716003 *   4.00000    1.000000
     46 Si    c    0.659783 *  0.749304 *  0.882934 *   4.00000    1.000000
     47 Si    c    0.089916 *  0.336875 *  0.549098 *   4.00000    1.000000
     48 Si    c    0.241567 *  0.912385 *  0.211941 *   4.00000    1.000000
     49 Si    c    0.972260 *  0.122928 *  0.968168 *   4.00000    1.000000
     50 Si    c    0.873257 *  0.846852 *  0.302375 *   4.00000    1.000000
     51 Si    c    0.148996 *  0.025412 *  0.635680 *   4.00000    1.000000
     52 Si    c    0.030715 *  0.874044 *  0.468891 *   4.00000    1.000000
     53 Si    c    0.121494 *  0.149124 *  0.801919 *   4.00000    1.000000
     54 Si    c    0.855335 *  0.979822 *  0.133414 *   4.00000    1.000000
     55 Si    c    0.117138 *  0.967260 *  0.367307 *   4.00000    1.000000
     56 Si    c    0.852028 *  0.879837 *  0.033217 *   4.00000    1.000000
     57 Si    c    0.027009 *  0.147132 *  0.700933 *   4.00000    1.000000
     58 Si    c    0.878804 *  0.029394 *  0.867015 *   4.00000    1.000000
     59 Si    c    0.152323 *  0.118613 *  0.534640 *   4.00000    1.000000
     60 Si    c    0.966251 *  0.853892 *  0.200614 *   4.00000    1.000000
     61 O2    c    0.929977 *  0.999554 *  0.999770 *   0.87073    1.000000
[...]
    172 O2    c    0.441017 *  0.410877 *  0.844008 *   0.87073    1.000000
    173 O2    c    0.972409 *  0.554726 *  0.510319 *   0.87073    1.000000
    174 O2    c    0.577398 *  0.021867 *  0.176664 *   0.87073    1.000000
    175 O2    c    0.577159 *  0.157438 *  0.250016 *   0.87073    1.000000
    176 O2    c    0.833530 *  0.411717 *  0.583949 *   0.87073    1.000000
    177 O2    c    0.582788 *  0.416443 *  0.917966 *   0.87073    1.000000
    178 O2    c    0.416148 *  0.832111 *  0.752302 *   0.87073    1.000000
    179 O2    c    0.165333 *  0.589499 *  0.084738 *   0.87073    1.000000
    180 O2    c    0.418176 *  0.579512 *  0.421906 *   0.87073    1.000000
    181 F     c    0.421845 *  0.864600 *  0.241502 *   0.56000    1.000000
    182 F     c    0.096216 *  0.544825 *  0.584127 *   0.56000    1.000000
    183 F     c    0.452441 *  0.548502 *  0.917751 *   0.56000    1.000000
    184 F     c    0.547860 *  0.094578 *  0.751041 *   0.56000    1.000000
    185 F     c    0.897018 *  0.449774 *  0.083835 *   0.56000    1.000000
    186 F     c    0.547820 *  0.446897 *  0.418709 *   0.56000    1.000000
    187 O2    s    0.925963 *  0.999981 *  0.999976 *  -2.87073    1.000000
    188 O2    s    0.995053 *  0.924470 *  0.335160 *  -2.87073    1.000000
    189 O2    s    0.072714 *  0.071371 *  0.667953 *  -2.87073    1.000000
    190 O2    s    0.078034 *  0.997453 *  0.501123 *  -2.87073    1.000000
    191 O2    s    0.999133 *  0.073295 *  0.833948 *  -2.87073    1.000000
    192 O2    s    0.920268 *  0.929433 *  0.168791 *  -2.87073    1.000000
    193 O2    s    0.349942 *  0.583755 *  0.339815 *  -2.87073    1.000000
    194 O2    s    0.411066 *  0.762200 *  0.669201 *  -2.87073    1.000000
    195 O2    s    0.235357 *  0.650029 *  0.001402 *  -2.87073    1.000000
    196 O2    s    0.648027 *  0.413937 *  0.834411 *  -2.87073    1.000000
    197 O2    s    0.587229 *  0.235765 *  0.167146 *  -2.87073    1.000000
    198 O2    s    0.767162 *  0.346997 *  0.500462 *  -2.87073    1.000000
    199 O2    s    0.584438 *  0.349942 *  0.001170 *  -2.87073    1.000000
    200 O2    s    0.763931 *  0.409390 *  0.667554 *  -2.87073    1.000000
    201 O2    s    0.642304 *  0.229751 *  0.334298 *  -2.87073    1.000000
    202 O2    s    0.417276 *  0.646357 *  0.504515 *  -2.87073    1.000000
    203 O3    s    0.231826 *  0.588565 *  0.167601 *  -3.33043    1.000000
    204 O2    s    0.352495 *  0.765839 *  0.835755 *  -2.87073    1.000000
    205 O2    s    0.122955 *  0.217709 *  0.971351 *  -2.87073    1.000000
    206 O2    s    0.776360 *  0.900525 *  0.304175 *  -2.87073    1.000000
    207 O2    s    0.092384 *  0.874076 *  0.638160 *  -2.87073    1.000000
    208 O2    s    0.880125 *  0.779114 *  0.472611 *  -2.87073    1.000000
    209 O2    s    0.216395 *  0.093406 *  0.804803 *  -2.87073    1.000000
    210 O2    s    0.912631 *  0.130040 *  0.136769 *  -2.87073    1.000000
    211 O2    s    0.213303 *  0.118532 *  0.366248 *  -2.87073    1.000000
    212 O2    s    0.904716 *  0.782752 *  0.030021 *  -2.87073    1.000000
    213 O2    s    0.876349 *  0.090967 *  0.698445 *  -2.87073    1.000000
    214 O2    s    0.782972 *  0.878138 *  0.864882 *  -2.87073    1.000000
    215 O2    s    0.096970 *  0.213757 *  0.531425 *  -2.87073    1.000000
    216 O2    s    0.116999 *  0.919267 *  0.198386 *  -2.87073    1.000000
    217 O2    s    0.922637 *  0.857024 *  0.251898 *  -2.87073    1.000000
    218 O2    s    0.139369 *  0.066285 *  0.584978 *  -2.87073    1.000000
    219 O2    s    0.932352 *  0.072517 *  0.917204 *  -2.87073    1.000000
    220 O2    s    0.070174 *  0.138046 *  0.751147 *  -2.87073    1.000000
    221 O2    s    0.869200 *  0.935837 *  0.083647 *  -2.87073    1.000000
    222 O2    s    0.067959 *  0.922697 *  0.417808 *  -2.87073    1.000000
    223 O2    s    0.909593 *  0.205462 *  0.983033 *  -2.87073    1.000000
    224 O2    s    0.791467 *  0.701546 *  0.318109 *  -2.87073    1.000000
    225 O2    s    0.294056 *  0.087457 *  0.650697 *  -2.87073    1.000000
    226 O2    s    0.093326 *  0.791639 *  0.483608 *  -2.87073    1.000000
    227 O2    s    0.204923 *  0.294964 *  0.816919 *  -2.87073    1.000000
    228 O2    s    0.709397 *  0.919125 *  0.146297 *  -2.87073    1.000000
    229 O2    s    0.198710 *  0.904654 *  0.350522 *  -2.87073    1.000000
    230 O2    s    0.705438 *  0.796772 *  0.019614 *  -2.87073    1.000000
    231 O2    s    0.088385 *  0.292671 *  0.685959 *  -2.87073    1.000000
    232 O2    s    0.795984 *  0.092018 *  0.852378 *  -2.87073    1.000000
    233 O2    s    0.298477 *  0.201734 *  0.520735 *  -2.87073    1.000000
    234 O2    s    0.909286 *  0.709315 *  0.184881 *  -2.87073    1.000000
    235 O3    s    0.318779 *  0.636259 *  0.256783 *  -3.33043    1.000000
    236 O2    s    0.343053 *  0.670305 *  0.586104 *  -2.87073    1.000000
    237 O2    s    0.329295 *  0.673166 *  0.918641 *  -2.87073    1.000000
    238 O2    s    0.671957 *  0.343030 *  0.751153 *  -2.87073    1.000000
    239 O2    s    0.653967 *  0.325217 *  0.084047 *  -2.87073    1.000000
    240 O2    s    0.670932 *  0.323661 *  0.417802 *  -2.87073    1.000000
    241 O2    s    0.377152 *  0.340040 *  0.969540 *  -2.87073    1.000000
    242 O2    s    0.651594 *  0.030629 *  0.300637 *  -2.87073    1.000000
[...]
   197  O2    s     0.580524    0.229852    0.166846    0.000000
   198  O2    s     0.760094    0.339198    0.500664    0.000000
   199  O2    s     0.583960    0.348621    0.001030    0.000000
   200  O2    s     0.755979    0.401029    0.667703    0.000000
   201  O2    s     0.634902    0.224012    0.334412    0.000000
   202  O2    s     0.410487    0.638900    0.505748    0.000000
   203  O3    s     0.225052    0.582049    0.169164    0.000000
   204  O2    s     0.347103    0.761633    0.837186    0.000000
   205  O2    s     0.120328    0.214037    0.971915    0.000000
   206  O2    s     0.769941    0.895198    0.304725    0.000000
   207  O2    s     0.084360    0.865983    0.638764    0.000000
   208  O2    s     0.873457    0.771795    0.473315    0.000000
   209  O2    s     0.211232    0.089176    0.805794    0.000000
   210  O2    s     0.906012    0.125198    0.137652    0.000000
   211  O2    s     0.205909    0.112139    0.367107    0.000000
   212  O2    s     0.904001    0.781677    0.030995    0.000000
   213  O2    s     0.868961    0.082846    0.699463    0.000000
   214  O2    s     0.778074    0.874529    0.865406    0.000000
   215  O2    s     0.089991    0.205913    0.532056    0.000000
   216  O2    s     0.110764    0.913193    0.198748    0.000000
   217  O2    s     0.917180    0.851794    0.252810    0.000000
   218  O2    s     0.132470    0.058958    0.585803    0.000000
   219  O2    s     0.928152    0.068666    0.917980    0.000000
   220  O2    s     0.064448    0.132268    0.751910    0.000000
   221  O2    s     0.865283    0.932363    0.084556    0.000000
   222  O2    s     0.061661    0.915413    0.418576    0.000000
   223  O2    s     0.908036    0.203655    0.983554    0.000000
   224  O2    s     0.783913    0.695633    0.318739    0.000000
   225  O2    s     0.286291    0.079104    0.651593    0.000000
   226  O2    s     0.086227    0.783465    0.484223    0.000000
   227  O2    s     0.199738    0.290835    0.817557    0.000000
   228  O2    s     0.703530    0.913315    0.146902    0.000000
   229  O2    s     0.191904    0.898741    0.350842    0.000000
   230  O2    s     0.703275    0.793430    0.020198    0.000000
   231  O2    s     0.080378    0.284765    0.686569    0.000000
   232  O2    s     0.790928    0.088194    0.853283    0.000000
   233  O2    s     0.291805    0.194460    0.521542    0.000000
   234  O2    s     0.902404    0.704050    0.185646    0.000000
   235  O3    s     0.313212    0.630560    0.257794    0.000000
   236  O2    s     0.335245    0.662396    0.587206    0.000000
   237  O2    s     0.325357    0.669088    0.919934    0.000000
   238  O2    s     0.665542    0.336573    0.751392    0.000000
   239  O2    s     0.651070    0.323265    0.083922    0.000000
   240  O2    s     0.663474    0.316802    0.418108    0.000000
   241  O2    s     0.374690    0.336638    0.970037    0.000000
   242  O2    s     0.644748    0.025096    0.300914    0.000000
   243  O2    s     0.952981    0.610508    0.636255    0.000000
   244  O2    s     0.619363    0.650491    0.473073    0.000000
   245  O2    s     0.334204    0.957576    0.804815    0.000000
   246  O2    s     0.032562    0.377899    0.136326    0.000000
[...]
   298  O2    s     0.436097    0.412259    0.847636    0.000000
   299  O2    s     0.970221    0.546798    0.514135    0.000000
   300  O2    s     0.568013    0.013129    0.179768    0.000000
   301  O2    s     0.565776    0.142359    0.250131    0.000000
   302  O2    s     0.836850    0.409005    0.584250    0.000000
   303  O2    s     0.573546    0.418627    0.917955    0.000000
   304  O2    s     0.415313    0.837179    0.753635    0.000000
   305  O2    s     0.151153    0.580497    0.086047    0.000000
   306  O2    s     0.416960    0.567498    0.422930    0.000000
   307  F     s     0.408858    0.847932    0.239511    0.000000
   308  F     s     0.088425    0.536470    0.584661    0.000000
   309  F     s     0.448534    0.545208    0.918242    0.000000
   310  F     s     0.541554    0.088814    0.751780    0.000000
   311  F     s     0.892192    0.446619    0.084069    0.000000
   312  F     s     0.540660    0.439847    0.419316    0.000000

  Final Cartesian lattice vectors (Angstroms) :

       11.999999    0.001331    0.000503
       -6.005887   10.312747   -0.001524
        0.042250   -0.227869   29.415274

  Final cell parameters and derivatives :

       a           12.000000 Angstrom     dE/de1(xx)     0.000451 eV/strain
       b           11.934129 Angstrom     dE/de2(yy)     0.000463 eV/strain
       c           29.416187 Angstrom     dE/de3(zz)     0.000483 eV/strain
       alpha       90.432272 Degrees      dE/de4(yz)     0.000064 eV/strain
       beta        89.915356 Degrees      dE/de5(xz)    -0.000028 eV/strain
       gamma      120.209104 Degrees      dE/de6(xy)    -0.000014 eV/strain

  Primitive cell volume =          3640.458566 Angs**3

  Density of cell =      1.716881 g/cm**3

  Non-primitive cell volume =          3640.458566 Angs**3

  Final internal derivatives :

   No.  Atomic          a             b             c           Radius
        Label          (eV)          (eV)          (eV)        (eV/Angs)
      1 Si    c       0.000000      0.000000      0.000000      0.000000
      2 Si    c      -0.000000      0.000007      0.000006      0.000000
      3 Si    c      -0.000019      0.000021      0.000339      0.000000
      4 Si    c       0.000029      0.000010     -0.000005      0.000000
      5 Si    c      -0.000011      0.000027      0.000077      0.000000
      6 Ge    c       0.000046      0.000032      0.000507      0.000000
      7 Si    c      -0.000005     -0.000035     -0.000236      0.000000
      8 Si    c       0.000025     -0.000016     -0.000219      0.000000
      9 Si    c      -0.000040      0.000014     -0.000201      0.000000
     10 Si    c       0.000022      0.000050     -0.000236      0.000000
     11 Si    c       0.000034     -0.000017      0.000046      0.000000
     12 Si    c       0.000095      0.000139     -0.000761      0.000000
     13 Si    c       0.000386     -0.000239      0.000653      0.000000
     14 Si    c       0.000016      0.000028     -0.000104      0.000000
     15 Si    c       0.000029     -0.000018     -0.000064      0.000000
     16 Si    c      -0.000044      0.000033      0.000129      0.000000
     17 Si    c       0.000004     -0.000017     -0.000228      0.000000
     18 Si    c      -0.000132      0.000013     -0.000007      0.000000
     19 Si    c       0.000003     -0.000012     -0.000060      0.000000
     20 Si    c      -0.000044      0.000028     -0.000155      0.000000
     21 Si    c      -0.000035     -0.000023      0.000170      0.000000
     22 Si    c       0.000068     -0.000050     -0.000051      0.000000
     23 Si    c      -0.000044     -0.000004     -0.000085      0.000000
     24 Si    c       0.000030     -0.000095      0.000275      0.000000
     25 Si    c      -0.000042     -0.000058      0.000185      0.000000
     26 Si    c       0.000182     -0.000005     -0.000067      0.000000
     27 Si    c      -0.000022      0.000056     -0.000059      0.000000
     28 Si    c       0.000004      0.000025     -0.000064      0.000000
     29 Si    c      -0.000112      0.000028     -0.000013      0.000000
     30 Si    c      -0.000170      0.000019     -0.000251      0.000000
     31 Si    c      -0.000033     -0.000010      0.000093      0.000000
     32 Si    c      -0.000104      0.000099     -0.000061      0.000000
     33 Si    c       0.000134     -0.000083     -0.000028      0.000000
     34 Si    c       0.000081      0.000001     -0.000071      0.000000
     35 Si    c       0.000003     -0.000050      0.000028      0.000000
     36 Si    c      -0.000096      0.000086      0.000173      0.000000
     37 Si    c      -0.000042     -0.000035     -0.000162      0.000000
     38 Si    c       0.000055      0.000010     -0.000009      0.000000
     39 Si    c      -0.000012      0.000043      0.000004      0.000000
     40 Si    c       0.000030      0.000029      0.000030      0.000000
     41 Si    c      -0.000066      0.000012     -0.000172      0.000000
     42 Si    c      -0.000035     -0.000002     -0.000163      0.000000
     43 Si    c      -0.000036     -0.000011     -0.000055      0.000000
     44 Si    c      -0.000095      0.000058      0.000512      0.000000
     45 Si    c       0.000082     -0.000041      0.000123      0.000000
     46 Si    c       0.000076     -0.000001      0.000134      0.000000
     47 Si    c       0.000014     -0.000053     -0.000024      0.000000
     48 Si    c      -0.000144      0.000088      0.000167      0.000000
     49 Si    c      -0.000046      0.000020      0.000074      0.000000
     50 Si    c       0.000104     -0.000074     -0.000149      0.000000
     51 Si    c       0.000013     -0.000027      0.000120      0.000000
     52 Si    c      -0.000003     -0.000016      0.000015      0.000000
     53 Si    c      -0.000057      0.000004     -0.000098      0.000000
     54 Si    c      -0.000096      0.000080      0.000369      0.000000
     55 Si    c       0.000012      0.000000     -0.000242      0.000000
     56 Si    c       0.000058     -0.000142     -0.000205      0.000000
     57 Si    c       0.000065     -0.000029      0.000243      0.000000
     58 Si    c      -0.000041      0.000030     -0.000039      0.000000
     59 Si    c      -0.000008      0.000019     -0.000160      0.000000
     60 Si    c      -0.000069     -0.000012     -0.000208      0.000000
[...]
    172 O2    c       0.000064     -0.000023     -0.000051      0.000000
    173 O2    c      -0.000013     -0.000007     -0.000041      0.000000
    174 O2    c      -0.000032      0.000057      0.000042      0.000000
    175 O2    c       0.000005     -0.000003      0.000079      0.000000
    176 O2    c      -0.000013      0.000013      0.000102      0.000000
    177 O2    c       0.000029      0.000014      0.000059      0.000000
    178 O2    c       0.000010      0.000041     -0.000033      0.000000
    179 O2    c       0.000096     -0.000004     -0.000055      0.000000
    180 O2    c      -0.000032      0.000026      0.000006      0.000000
    181 F     c       0.000003      0.000005      0.000162      0.000000
    182 F     c      -0.000008      0.000003     -0.000072      0.000000
    183 F     c       0.000007     -0.000003      0.000030      0.000000
    184 F     c      -0.000007     -0.000001      0.000011      0.000000
    185 F     c       0.000028     -0.000017      0.000066      0.000000
    186 F     c      -0.000003     -0.000003      0.000013      0.000000
    187 O2    s       0.000036     -0.000061      0.000039      0.000000
    188 O2    s      -0.000012     -0.000011     -0.000022      0.000000
    189 O2    s      -0.000004      0.000004      0.000046      0.000000
    190 O2    s      -0.000014     -0.000013     -0.000024      0.000000
    191 O2    s       0.000008     -0.000011     -0.000044      0.000000
    192 O2    s      -0.000051      0.000068      0.000027      0.000000
    193 O2    s      -0.000002     -0.000005      0.000029      0.000000
    194 O2    s       0.000001     -0.000032      0.000018      0.000000
    195 O2    s       0.000021      0.000001     -0.000007      0.000000
    196 O2    s       0.000018     -0.000027      0.000004      0.000000
    197 O2    s      -0.000076     -0.000001     -0.000040      0.000000
    198 O2    s       0.000003     -0.000025     -0.000013      0.000000
    199 O2    s      -0.000105     -0.000229     -0.000107      0.000000
    200 O2    s      -0.000009      0.000005     -0.000032      0.000000
    201 O2    s       0.000003     -0.000000     -0.000033      0.000000
    202 O2    s      -0.000021      0.000036     -0.000021      0.000000
    203 O3    s       0.000103      0.000144      0.000364      0.000000
    204 O2    s      -0.000018      0.000015     -0.000032      0.000000
    205 O2    s       0.000026     -0.000023      0.000217      0.000000
    206 O2    s       0.000062     -0.000007      0.000107      0.000000
    207 O2    s      -0.000025     -0.000002      0.000045      0.000000
    208 O2    s       0.000033      0.000007      0.000072      0.000000
    209 O2    s       0.000004     -0.000012      0.000025      0.000000
    210 O2    s       0.000077      0.000018      0.000131      0.000000
    211 O2    s      -0.000014      0.000013     -0.000062      0.000000
    212 O2    s       0.000110     -0.000049     -0.000118      0.000000
    213 O2    s       0.000032     -0.000022     -0.000032      0.000000
    214 O2    s       0.000032     -0.000037     -0.000230      0.000000
    215 O2    s       0.000004     -0.000019     -0.000048      0.000000
    216 O2    s       0.000046      0.000051     -0.000126      0.000000
    217 O2    s      -0.000021      0.000052     -0.000032      0.000000
    218 O2    s      -0.000019      0.000015     -0.000041      0.000000
    219 O2    s      -0.000013      0.000015      0.000030      0.000000
    220 O2    s       0.000032     -0.000035     -0.000015      0.000000
    221 O2    s       0.000061     -0.000035     -0.000094      0.000000
    222 O2    s       0.000005     -0.000001     -0.000030      0.000000
    223 O2    s       0.000051     -0.000083     -0.000399      0.000000
    224 O2    s       0.000048     -0.000017      0.000038      0.000000
    225 O2    s      -0.000016      0.000022     -0.000011      0.000000
    226 O2    s      -0.000021      0.000029     -0.000070      0.000000
    227 O2    s       0.000012      0.000010     -0.000050      0.000000
    228 O2    s      -0.000036     -0.000015      0.000052      0.000000
    229 O2    s      -0.000009     -0.000001      0.000127      0.000000
    230 O2    s      -0.000017      0.000026     -0.000001      0.000000
    231 O2    s       0.000017     -0.000008      0.000032      0.000000
    232 O2    s      -0.000007      0.000033     -0.000003      0.000000
    233 O2    s      -0.000015     -0.000009      0.000028      0.000000
    234 O2    s      -0.000047      0.000013      0.000004      0.000000
    235 O3    s      -0.000007     -0.000130      0.000296      0.000000
    236 O2    s       0.000053     -0.000016     -0.000100      0.000000
    237 O2    s      -0.000041      0.000045     -0.000046      0.000000
    238 O2    s      -0.000016      0.000056      0.000087      0.000000
    239 O2    s      -0.000427     -0.000208      0.000129      0.000000
    240 O2    s       0.000015     -0.000017      0.000029      0.000000
    241 O2    s       0.000057     -0.000035      0.000045      0.000000
    242 O2    s       0.000012      0.000037      0.000069      0.000000
    243 O2    s      -0.000005      0.000013      0.000055      0.000000
    244 O2    s      -0.000007      0.000003      0.000036      0.000000
    245 O2    s      -0.000015      0.000016      0.000059      0.000000
    246 O2    s       0.000008     -0.000019      0.000065      0.000000
[...]
    298 O2    s       0.000020     -0.000028     -0.000060      0.000000
    299 O2    s       0.000001      0.000002     -0.000010      0.000000
    300 O2    s       0.000012     -0.000047     -0.000116      0.000000
    301 O2    s       0.000020     -0.000004      0.000149      0.000000
    302 O2    s      -0.000022     -0.000006     -0.000092      0.000000
    303 O2    s      -0.000032     -0.000070     -0.000054      0.000000
    304 O2    s      -0.000011     -0.000056     -0.000040      0.000000
    305 O2    s      -0.000019      0.000058     -0.000165      0.000000
    306 O2    s      -0.000011      0.000016      0.000030      0.000000
    307 F     s      -0.000013      0.000132     -0.000067      0.000000
    308 F     s       0.000012     -0.000006      0.000084      0.000000
    309 F     s      -0.000006     -0.000015     -0.000040      0.000000
    310 F     s       0.000003     -0.000010     -0.000003      0.000000
    311 F     s      -0.000006      0.000096     -0.000134      0.000000
    312 F     s       0.000002      0.000004     -0.000029      0.000000
  Maximum abs         0.000427      0.000427      0.000918      0.000000

  Time to end of optimisation =       8.6729 seconds

  Timing analysis for GULP :

  Task / Subroutine                                          Time (Seconds)
  Calculation of reciprocal space energy and derivatives          0.2524
  Calculation of real space energy and derivatives                4.7146
  Calculation of three-body energy and derivatives                0.5842

  Dump file written as 1.2.res
  CIF file written as 1.2.cif

  Job Finished at 02:31.43 18th December   2016