  Job Started  at 03:23.42 18th December   2016

  Number of CPUs =     1

  Total number of configurations input =   1

*  Input for Configuration =   1                                               *

  Formula = Ge13Si47O120F6

  Number of irreducible atoms/shells =     312

  Total number atoms/shells =     312

  Dimensionality = 3               :  Bulk

  Charge on solid   =  -6.000000 =>neutralising background added

  Cartesian lattice vectors (Angstroms) :

       12.094923    0.000000    0.000000
       -6.058757   10.448873    0.000000
        0.140723    0.167341   29.724207

  Cell parameters (Angstroms/Degrees):

  a =      12.0949    alpha =  89.8570
  b =      12.0784    beta  =  89.7288
  c =      29.7250    gamma = 120.1072

  Initial cell volume =        3756.495179 Angs**3

  Temperature of configuration =  0.000     K

  Pressure of configuration =         0.000 GPa

  Fractional coordinates of asymmetric unit :

   No.  Atomic       x           y          z         Charge      Occupancy
        Label      (Frac)      (Frac)     (Frac)        (e)         (Frac)
      1 Ge    c    0.699600    0.375700    0.033890     4.00000    1.000000
      2 Ge    c    0.612927 *  0.317953 *  0.371359 *   4.00000    1.000000
      3 Ge    c    0.678902 *  0.272714 *  0.703397 *   4.00000    1.000000
      4 Ge    c    0.296723 *  0.603996 *  0.542438 *   4.00000    1.000000
      5 Ge    c    0.386785 *  0.673192 *  0.876957 *   4.00000    1.000000
      6 Ge    c    0.323526 *  0.709182 *  0.208687 *   4.00000    1.000000
      7 Si    c    0.365334 *  0.684080 *  0.306834 *   4.00000    1.000000
      8 Si    c    0.311173 *  0.628803 *  0.975415 *   4.00000    1.000000
      9 Ge    c    0.314079 *  0.670250 *  0.640845 *   4.00000    1.000000
     10 Ge    c    0.644357 *  0.316416 *  0.800583 *   4.00000    1.000000
     11 Ge    c    0.688444 *  0.358941 *  0.469390 *   4.00000    1.000000
     12 Si    c    0.694365 *  0.320780 *  0.137101 *   4.00000    1.000000
     13 Si    c    0.525146 *  0.422584 *  0.970814 *   4.00000    1.000000
     14 Si    c    0.575809 *  0.104038 *  0.304797 *   4.00000    1.000000
     15 Si    c    0.895444 *  0.448920 *  0.635988 *   4.00000    1.000000
     16 Si    c    0.473839 *  0.564485 *  0.476827 *   4.00000    1.000000
     17 Si    c    0.434320 *  0.896237 *  0.811922 *   4.00000    1.000000
     18 Si    c    0.112749 *  0.529907 *  0.143175 *   4.00000    1.000000
     19 Ge    c    0.420094 *  0.519683 *  0.372874 *   4.00000    1.000000
     20 Ge    c    0.088137 *  0.565348 *  0.043120 *   4.00000    1.000000
     21 Si    c    0.481319 *  0.880472 *  0.709274 *   4.00000    1.000000
     22 Ge    c    0.580573 *  0.480463 *  0.866991 *   4.00000    1.000000
     23 Si    c    0.905876 *  0.400351 *  0.533521 *   4.00000    1.000000
     24 Ge    c    0.522163 *  0.097074 *  0.200625 *   4.00000    1.000000
     25 Si    c    0.292310 *  0.402389 *  0.850719 *   4.00000    1.000000
     26 Si    c    0.595355 *  0.884480 *  0.184069 *   4.00000    1.000000
     27 Si    c    0.110671 *  0.687865 *  0.517295 *   4.00000    1.000000
     28 Si    c    0.706224 *  0.593735 *  0.351793 *   4.00000    1.000000
     29 Si    c    0.402871 *  0.085009 *  0.686989 *   4.00000    1.000000
     30 Si    c    0.901657 *  0.294074 *  0.017699 *   4.00000    1.000000
     31 Si    c    0.404219 *  0.277314 *  0.484289 *   4.00000    1.000000
     32 Si    c    0.898246 *  0.602386 *  0.150299 *   4.00000    1.000000
     33 Si    c    0.722069 *  0.112349 *  0.818216 *   4.00000    1.000000
     34 Si    c    0.596985 *  0.707277 *  0.984005 *   4.00000    1.000000
     35 Si    c    0.111407 *  0.381476 *  0.650246 *   4.00000    1.000000
     36 Si    c    0.289106 *  0.890706 *  0.315319 *   4.00000    1.000000
     37 Si    c    0.246693 *  0.348261 *  0.953832 *   4.00000    1.000000
     38 Si    c    0.647770 *  0.896001 *  0.287168 *   4.00000    1.000000
     39 Si    c    0.094813 *  0.731981 *  0.619814 *   4.00000    1.000000
     40 Si    c    0.754003 *  0.643453 *  0.454531 *   4.00000    1.000000
     41 Si    c    0.356873 *  0.098140 *  0.789384 *   4.00000    1.000000
     42 Si    c    0.907465 *  0.251254 *  0.121146 *   4.00000    1.000000
     43 Si    c    0.332208 *  0.230284 *  0.382475 *   4.00000    1.000000
     44 Si    c    0.909208 *  0.665578 *  0.048351 *   4.00000    1.000000
     45 Si    c    0.766260 *  0.080901 *  0.717040 *   4.00000    1.000000
     46 Si    c    0.667231 *  0.767045 *  0.882260 *   4.00000    1.000000
     47 Si    c    0.107301 *  0.320795 *  0.548355 *   4.00000    1.000000
     48 Si    c    0.234125 *  0.900514 *  0.213348 *   4.00000    1.000000
     49 Si    c    0.974842 *  0.121234 *  0.968562 *   4.00000    1.000000
     50 Si    c    0.872085 *  0.846198 *  0.301521 *   4.00000    1.000000
     51 Si    c    0.150729 *  0.004976 *  0.635626 *   4.00000    1.000000
     52 Si    c    0.028320 *  0.859969 *  0.468363 *   4.00000    1.000000
     53 Si    c    0.132162 *  0.147824 *  0.801910 *   4.00000    1.000000
     54 Si    c    0.847425 *  0.972015 *  0.134251 *   4.00000    1.000000
     55 Si    c    0.109411 *  0.957445 *  0.367287 *   4.00000    1.000000
     56 Si    c    0.846226 *  0.882523 *  0.033717 *   4.00000    1.000000
     57 Si    c    0.036791 *  0.129972 *  0.701390 *   4.00000    1.000000
     58 Si    c    0.895787 *  0.037191 *  0.867741 *   4.00000    1.000000
     59 Si    c    0.155041 *  0.097741 *  0.534716 *   4.00000    1.000000
     60 Si    c    0.960926 *  0.848870 *  0.200225 *   4.00000    1.000000
     61 O2    c    0.932788 *  0.997134 *  0.999407 *   0.87073    1.000000
[...]
    172 O3    c    0.431179 *  0.416165 *  0.842937 *   1.33043    1.000000
    173 O2    c    0.990169 *  0.543071 *  0.512041 *   0.87073    1.000000
    174 O3    c    0.584697 *  0.011308 *  0.175931 *   1.33043    1.000000
    175 O3    c    0.570346 *  0.149686 *  0.254183 *   1.33043    1.000000
    176 O2    c    0.861375 *  0.400043 *  0.584493 *   0.87073    1.000000
    177 O3    c    0.581408 *  0.429788 *  0.921536 *   1.33043    1.000000
    178 O2    c    0.443309 *  0.848590 *  0.761399 *   0.87073    1.000000
    179 O3    c    0.169507 *  0.586935 *  0.094329 *   1.33043    1.000000
    180 O3    c    0.411679 *  0.554879 *  0.427928 *   1.33043    1.000000
    181 F     c    0.419880 *  0.862497 *  0.241158 *   0.56000    1.000000
    182 F     c    0.152189 *  0.549312 *  0.579204 *   0.56000    1.000000
    183 F     c    0.444204 *  0.577118 *  0.908246 *   0.56000    1.000000
    184 F     c    0.590281 *  0.139672 *  0.746469 *   0.56000    1.000000
    185 F     c    0.929215 *  0.469480 *  0.074930 *   0.56000    1.000000
    186 F     c    0.563644 *  0.411837 *  0.411015 *   0.56000    1.000000
    187 O2    s    0.927972 *  0.998381 *  0.999747 *  -2.87073    1.000000
    188 O2    s    0.992041 *  0.920680 *  0.334131 *  -2.87073    1.000000
    189 O2    s    0.078785 *  0.053759 *  0.668009 *  -2.87073    1.000000
    190 O2    s    0.080079 *  0.979378 *  0.501466 *  -2.87073    1.000000
    191 O2    s    0.011267 *  0.071988 *  0.833986 *  -2.87073    1.000000
    192 O2    s    0.922549 *  0.926210 *  0.166317 *  -2.87073    1.000000
    193 O3    s    0.344385 *  0.582640 *  0.342074 *  -3.33043    1.000000
    194 O3    s    0.423373 *  0.756903 *  0.681865 *  -3.33043    1.000000
    195 O3    s    0.232055 *  0.646160 *  0.009135 *  -3.33043    1.000000
    196 O1    s    0.664140 *  0.431824 *  0.836183 *  -3.73396    1.000000
    197 O3    s    0.584588 *  0.235525 *  0.168053 *  -3.33043    1.000000
    198 O3    s    0.785479 *  0.333478 *  0.504848 *  -3.33043    1.000000
    199 O3    s    0.571963 *  0.352648 *  0.001742 *  -3.33043    1.000000
    200 O3    s    0.778957 *  0.396187 *  0.663615 *  -3.33043    1.000000
    201 O3    s    0.639476 *  0.214536 *  0.334804 *  -3.33043    1.000000
    202 O3    s    0.431008 *  0.628974 *  0.508455 *  -3.33043    1.000000
    203 O3    s    0.216296 *  0.572607 *  0.176875 *  -3.33043    1.000000
    204 O3    s    0.366545 *  0.785785 *  0.842140 *  -3.33043    1.000000
    205 O2    s    0.121885 *  0.223924 *  0.972621 *  -2.87073    1.000000
    206 O2    s    0.771895 *  0.893944 *  0.304820 *  -2.87073    1.000000
    207 O2    s    0.089962 *  0.855735 *  0.636258 *  -2.87073    1.000000
    208 O2    s    0.879774 *  0.768732 *  0.471768 *  -2.87073    1.000000
    209 O2    s    0.231665 *  0.100748 *  0.806237 *  -2.87073    1.000000
    210 O2    s    0.896896 *  0.120375 *  0.138512 *  -2.87073    1.000000
    211 O2    s    0.200969 *  0.105794 *  0.368117 *  -2.87073    1.000000
    212 O2    s    0.898246 *  0.787220 *  0.033127 *  -2.87073    1.000000
    213 O2    s    0.887795 *  0.069830 *  0.702170 *  -2.87073    1.000000
    214 O2    s    0.799566 *  0.890550 *  0.867868 *  -2.87073    1.000000
    215 O2    s    0.098947 *  0.189875 *  0.533215 *  -2.87073    1.000000
    216 O2    s    0.108949 *  0.905319 *  0.199296 *  -2.87073    1.000000
    217 O2    s    0.917751 *  0.858419 *  0.250409 *  -2.87073    1.000000
    218 O2    s    0.147104 *  0.048216 *  0.584990 *  -2.87073    1.000000
    219 O2    s    0.948545 *  0.080438 *  0.917413 *  -2.87073    1.000000
    220 O2    s    0.086085 *  0.129284 *  0.750811 *  -2.87073    1.000000
    221 O2    s    0.858975 *  0.939053 *  0.083275 *  -2.87073    1.000000
    222 O2    s    0.061109 *  0.908723 *  0.417415 *  -2.87073    1.000000
    223 O2    s    0.901966 *  0.190707 *  0.984379 *  -2.87073    1.000000
    224 O2    s    0.799160 *  0.703117 *  0.317116 *  -2.87073    1.000000
    225 O2    s    0.292527 *  0.061801 *  0.652036 *  -2.87073    1.000000
    226 O2    s    0.090560 *  0.777355 *  0.482306 *  -2.87073    1.000000
    227 O2    s    0.200710 *  0.292004 *  0.816437 *  -2.87073    1.000000
    228 O2    s    0.704487 *  0.899459 *  0.149976 *  -2.87073    1.000000
    229 O2    s    0.192989 *  0.898515 *  0.350432 *  -2.87073    1.000000
    230 O2    s    0.701551 *  0.802162 *  0.019222 *  -2.87073    1.000000
    231 O2    s    0.094157 *  0.272940 *  0.685213 *  -2.87073    1.000000
    232 O2    s    0.817028 *  0.102365 *  0.852970 *  -2.87073    1.000000
    233 O2    s    0.298808 *  0.181918 *  0.519470 *  -2.87073    1.000000
    234 O2    s    0.901021 *  0.704394 *  0.185301 *  -2.87073    1.000000
    235 O3    s    0.320159 *  0.635132 *  0.260352 *  -3.33043    1.000000
    236 O1    s    0.376319 *  0.679067 *  0.591478 *  -3.73396    1.000000
    237 O3    s    0.314064 *  0.676252 *  0.927188 *  -3.33043    1.000000
    238 O1    s    0.694819 *  0.366152 *  0.749475 *  -3.73396    1.000000
    239 O3    s    0.653135 *  0.319678 *  0.087396 *  -3.33043    1.000000
    240 O1    s    0.689906 *  0.309753 *  0.418641 *  -3.73396    1.000000
    241 O2    s    0.373382 *  0.349420 *  0.967535 *  -2.87073    1.000000
    242 O2    s    0.646694 *  0.020540 *  0.300687 *  -2.87073    1.000000
[...]
   197  O3    s     0.578530    0.226373    0.167660    0.000000
   198  O3    s     0.765437    0.312147    0.505066    0.000000
   199  O3    s     0.567521    0.344374    0.002478    0.000000
   200  O3    s     0.764815    0.375593    0.663660    0.000000
   201  O3    s     0.624538    0.195422    0.334945    0.000000
   202  O3    s     0.410195    0.605748    0.505912    0.000000
   203  O3    s     0.209881    0.563103    0.175015    0.000000
   204  O3    s     0.356635    0.762258    0.839360    0.000000
   205  O2    s     0.112437    0.210216    0.971234    0.000000
   206  O2    s     0.757533    0.875704    0.304102    0.000000
   207  O2    s     0.075659    0.834591    0.635237    0.000000
   208  O2    s     0.860744    0.747768    0.469883    0.000000
   209  O2    s     0.217691    0.076612    0.804141    0.000000
   210  O2    s     0.890633    0.110980    0.137166    0.000000
   211  O2    s     0.184863    0.084680    0.366464    0.000000
   212  O2    s     0.896532    0.782765    0.032911    0.000000
   213  O2    s     0.876015    0.049678    0.700425    0.000000
   214  O2    s     0.793440    0.872867    0.867662    0.000000
   215  O2    s     0.078741    0.166281    0.532300    0.000000
   216  O2    s     0.100438    0.896166    0.198736    0.000000
   217  O2    s     0.905762    0.844215    0.249497    0.000000
   218  O2    s     0.130369    0.026374    0.583895    0.000000
   219  O2    s     0.936822    0.068458    0.916314    0.000000
   220  O2    s     0.073516    0.111077    0.749994    0.000000
   221  O2    s     0.848758    0.928471    0.082392    0.000000
   222  O2    s     0.045598    0.888487    0.416553    0.000000
   223  O2    s     0.895016    0.183724    0.982936    0.000000
   224  O2    s     0.782837    0.683586    0.315177    0.000000
   225  O2    s     0.279334    0.039503    0.649788    0.000000
   226  O2    s     0.069999    0.754080    0.481344    0.000000
   227  O2    s     0.195457    0.272821    0.815151    0.000000
   228  O2    s     0.696757    0.891356    0.149346    0.000000
   229  O2    s     0.177652    0.878208    0.349371    0.000000
   230  O2    s     0.693524    0.787404    0.018505    0.000000
   231  O2    s     0.081798    0.252868    0.683838    0.000000
   232  O2    s     0.802940    0.080119    0.851019    0.000000
   233  O2    s     0.278882    0.159427    0.517672    0.000000
   234  O2    s     0.895171    0.694489    0.184611    0.000000
   235  O3    s     0.307897    0.621200    0.258311    0.000000
   236  O1    s     0.358738    0.655835    0.588922    0.000000
   237  O3    s     0.309266    0.660824    0.925038    0.000000
   238  O1    s     0.677886    0.342140    0.748689    0.000000
   239  O3    s     0.650964    0.317647    0.087386    0.000000
   240  O1    s     0.672035    0.289124    0.418372    0.000000
   241  O2    s     0.364861    0.334542    0.967999    0.000000
   242  O2    s     0.631888    0.002254    0.300822    0.000000
   243  O2    s     0.958209    0.582174    0.632980    0.000000
   244  O2    s     0.608254    0.617541    0.466937    0.000000
   245  O2    s     0.347417    0.952703    0.803909    0.000000
   246  O2    s     0.023261    0.363694    0.135944    0.000000
[...]
   298  O3    s     0.425004    0.403072    0.844387    0.000000
   299  O2    s     0.974151    0.520070    0.514000    0.000000
   300  O3    s     0.570919    0.996113    0.178139    0.000000
   301  O3    s     0.556922    0.127109    0.254243    0.000000
   302  O2    s     0.853064    0.384343    0.584141    0.000000
   303  O3    s     0.565741    0.414674    0.922079    0.000000
   304  O2    s     0.433826    0.834352    0.757786    0.000000
   305  O3    s     0.152249    0.569166    0.093579    0.000000
   306  O3    s     0.402104    0.533120    0.425171    0.000000
   307  F     s     0.403227    0.839912    0.237946    0.000000
   308  F     s     0.145071    0.530924    0.575485    0.000000
   309  F     s     0.434682    0.565190    0.904470    0.000000
   310  F     s     0.582059    0.125645    0.741912    0.000000
   311  F     s     0.931476    0.467858    0.071112    0.000000
   312  F     s     0.549492    0.385664    0.407287    0.000000

  Final Cartesian lattice vectors (Angstroms) :

       12.099217    0.004291    0.008085
       -6.057200   10.464849    0.012434
        0.160703    0.214575   29.739967

  Final cell parameters and derivatives :

       a           12.099220 Angstrom     dE/de1(xx)    -0.000119 eV/strain
       b           12.091439 Angstrom     dE/de2(yy)     0.000015 eV/strain
       c           29.741176 Angstrom     dE/de3(zz)     0.000644 eV/strain
       alpha       89.738405 Degrees      dE/de4(yz)    -0.000090 eV/strain
       beta        89.651973 Degrees      dE/de5(xz)    -0.000196 eV/strain
       gamma      120.042466 Degrees      dE/de6(xy)     0.000124 eV/strain

  Primitive cell volume =          3766.286354 Angs**3

  Density of cell =      1.895070 g/cm**3

  Non-primitive cell volume =          3766.286354 Angs**3

  Final internal derivatives :

   No.  Atomic          a             b             c           Radius
        Label          (eV)          (eV)          (eV)        (eV/Angs)
      1 Ge    c       0.000000      0.000000      0.000000      0.000000
      2 Ge    c       0.000001      0.000077      0.000180      0.000000
      3 Ge    c      -0.000023      0.000054     -0.000622      0.000000
      4 Ge    c      -0.000033      0.000022      0.000013      0.000000
      5 Ge    c      -0.000148      0.000299     -0.000711      0.000000
      6 Ge    c       0.000153      0.000339      0.000064      0.000000
      7 Si    c       0.000162     -0.000090      0.000443      0.000000
      8 Si    c      -0.000177      0.000164      0.000675      0.000000
      9 Ge    c      -0.000055      0.000035     -0.000126      0.000000
     10 Ge    c      -0.000242      0.000416      0.001730      0.000000
     11 Ge    c       0.000022     -0.000078      0.000199      0.000000
     12 Si    c       0.000132     -0.000276      0.000606      0.000000
     13 Si    c       0.000180     -0.000508      0.001064      0.000000
     14 Si    c       0.000191     -0.000146      0.000792      0.000000
     15 Si    c       0.000044     -0.000085     -0.000059      0.000000
     16 Si    c       0.000010      0.000050      0.000636      0.000000
     17 Si    c       0.000080     -0.000531      0.001059      0.000000
     18 Si    c       0.000185      0.000037      0.000466      0.000000
     19 Ge    c       0.000188      0.000047     -0.000322      0.000000
     20 Ge    c       0.000252      0.000145     -0.000894      0.000000
     21 Si    c       0.000060      0.000063      0.000216      0.000000
     22 Ge    c       0.000487     -0.000599     -0.001234      0.000000
     23 Si    c      -0.000039      0.000012      0.000062      0.000000
     24 Ge    c       0.000130     -0.000079     -0.000326      0.000000
     25 Si    c      -0.000238      0.000179      0.000246      0.000000
     26 Si    c      -0.000224     -0.000051      0.000447      0.000000
     27 Si    c       0.000100     -0.000032      0.000115      0.000000
     28 Si    c       0.000239     -0.000223      0.000167      0.000000
     29 Si    c       0.000188      0.000035      0.000028      0.000000
     30 Si    c      -0.000113     -0.000097     -0.000817      0.000000
     31 Si    c      -0.000062     -0.000018     -0.000084      0.000000
     32 Si    c      -0.000044      0.000096      0.000747      0.000000
     33 Si    c      -0.000030      0.000074      0.000168      0.000000
     34 Si    c       0.000128     -0.000130      0.000109      0.000000
     35 Si    c      -0.000085      0.000041     -0.000023      0.000000
     36 Si    c      -0.000080     -0.000052     -0.000207      0.000000
     37 Si    c      -0.000252      0.000001      0.000438      0.000000
     38 Si    c       0.000062     -0.000027      0.000402      0.000000
     39 Si    c       0.000134     -0.000150     -0.000157      0.000000
     40 Si    c       0.000149     -0.000065      0.000047      0.000000
     41 Si    c       0.000032      0.000004      0.000126      0.000000
     42 Si    c      -0.000010     -0.000058      0.000153      0.000000
     43 Si    c      -0.000007     -0.000121      0.000179      0.000000
     44 Si    c      -0.000357      0.000284     -0.001110      0.000000
     45 Si    c      -0.000194      0.000153     -0.000019      0.000000
     46 Si    c       0.000177      0.000066     -0.000158      0.000000
     47 Si    c      -0.000049      0.000137      0.000219      0.000000
     48 Si    c      -0.000453      0.000175     -0.000386      0.000000
     49 Si    c       0.000172      0.000135      0.000729      0.000000
     50 Si    c       0.000006      0.000054      0.000104      0.000000
     51 Si    c      -0.000145      0.000230      0.000030      0.000000
     52 Si    c      -0.000076      0.000031     -0.000209      0.000000
     53 Si    c       0.000477     -0.000280      0.000022      0.000000
     54 Si    c      -0.000008     -0.000007      0.000021      0.000000
     55 Si    c      -0.000083      0.000108      0.000107      0.000000
     56 Si    c       0.000607     -0.000760     -0.000770      0.000000
     57 Si    c       0.000110     -0.000144     -0.000019      0.000000
     58 Si    c      -0.000583      0.000010      0.000819      0.000000
     59 Si    c       0.000081     -0.000010     -0.000184      0.000000
     60 Si    c       0.000201      0.000004     -0.000237      0.000000
[...]
    172 O3    c       0.000350     -0.000017      0.000481      0.000000
    173 O2    c       0.000008     -0.000017      0.000042      0.000000
    174 O3    c       0.000111     -0.000114     -0.000356      0.000000
    175 O3    c      -0.000031      0.000341     -0.001398      0.000000
    176 O2    c       0.000063     -0.000010     -0.000006      0.000000
    177 O3    c       0.000311     -0.000217     -0.000495      0.000000
    178 O2    c       0.000034     -0.000002      0.000012      0.000000
    179 O3    c       0.000118     -0.000029     -0.000085      0.000000
    180 O3    c      -0.000402      0.000143     -0.000219      0.000000
    181 F     c      -0.000079      0.000147     -0.000500      0.000000
    182 F     c       0.000035      0.000006     -0.000044      0.000000
    183 F     c       0.000004     -0.000011     -0.000063      0.000000
    184 F     c       0.000053     -0.000137     -0.000435      0.000000
    185 F     c       0.000285     -0.000100      0.000362      0.000000
    186 F     c      -0.000025      0.000020     -0.000089      0.000000
    187 O2    s      -0.000061     -0.000294     -0.000072      0.000000
    188 O2    s       0.000069     -0.000088     -0.000010      0.000000
    189 O2    s      -0.000004      0.000054      0.000035      0.000000
    190 O2    s      -0.000051     -0.000000     -0.000089      0.000000
    191 O2    s      -0.000071     -0.000002      0.000262      0.000000
    192 O2    s      -0.000007     -0.000019     -0.000182      0.000000
    193 O3    s       0.000106      0.000033      0.000132      0.000000
    194 O3    s      -0.000027      0.000045     -0.000098      0.000000
    195 O3    s      -0.000344      0.000475      0.000419      0.000000
    196 O1    s       0.000407      0.000326      0.000092      0.000000
    197 O3    s      -0.000032     -0.000064      0.000480      0.000000
    198 O3    s       0.000170     -0.000119      0.000216      0.000000
    199 O3    s      -0.000248     -0.000547     -0.000370      0.000000
    200 O3    s      -0.000002      0.000004      0.000056      0.000000
    201 O3    s       0.000170      0.000068      0.000419      0.000000
    202 O3    s      -0.000152      0.000164      0.000410      0.000000
    203 O3    s       0.000072     -0.000284      0.000105      0.000000
    204 O3    s      -0.000596      0.000354      0.000143      0.000000
    205 O2    s      -0.000036     -0.000081      0.000053      0.000000
    206 O2    s       0.000210     -0.000181      0.000384      0.000000
    207 O2    s       0.000003      0.000048     -0.000073      0.000000
    208 O2    s       0.000098      0.000065      0.000043      0.000000
    209 O2    s      -0.000076      0.000166      0.000252      0.000000
    210 O2    s      -0.000042      0.000006      0.000005      0.000000
    211 O2    s      -0.000042     -0.000096     -0.000039      0.000000
    212 O2    s       0.000022     -0.000104     -0.000134      0.000000
    213 O2    s       0.000032     -0.000002      0.000106      0.000000
    214 O2    s      -0.000192      0.000483     -0.000168      0.000000
    215 O2    s      -0.000094      0.000114      0.000019      0.000000
    216 O2    s      -0.000539      0.000234     -0.000723      0.000000
    217 O2    s       0.000105     -0.000160     -0.000085      0.000000
    218 O2    s      -0.000010      0.000050      0.000129      0.000000
    219 O2    s      -0.000224      0.000013      0.000108      0.000000
    220 O2    s       0.000212     -0.000032      0.000520      0.000000
    221 O2    s      -0.000081     -0.000204     -0.000553      0.000000
    222 O2    s      -0.000023      0.000005      0.000038      0.000000
    223 O2    s       0.000196     -0.000053     -0.000007      0.000000
    224 O2    s       0.000027      0.000133     -0.000149      0.000000
    225 O2    s      -0.000083      0.000086     -0.000022      0.000000
    226 O2    s      -0.000016     -0.000006     -0.000028      0.000000
    227 O2    s       0.000068     -0.000358     -0.000331      0.000000
    228 O2    s       0.000005     -0.000032     -0.000083      0.000000
    229 O2    s      -0.000071      0.000060     -0.000034      0.000000
    230 O2    s       0.000385      0.000084      0.000058      0.000000
    231 O2    s       0.000061     -0.000081      0.000097      0.000000
    232 O2    s       0.000348     -0.000358      0.001028      0.000000
    233 O2    s      -0.000036     -0.000043      0.000222      0.000000
    234 O2    s      -0.000026     -0.000010      0.000110      0.000000
    235 O3    s      -0.000019      0.000281     -0.000308      0.000000
    236 O1    s      -0.000069     -0.000006      0.000030      0.000000
    237 O3    s      -0.000067      0.000031      0.000038      0.000000
    238 O1    s       0.000107     -0.000216     -0.000155      0.000000
    239 O3    s       0.000029     -0.000249      0.001479      0.000000
    240 O1    s      -0.000009     -0.000013     -0.000115      0.000000
    241 O2    s      -0.000009     -0.000124      0.000189      0.000000
    242 O2    s       0.000224      0.000071      0.000727      0.000000
    243 O2    s       0.000016     -0.000013     -0.000069      0.000000
    244 O2    s       0.000065      0.000207      0.000419      0.000000
    245 O2    s       0.000022      0.000005     -0.000065      0.000000
    246 O2    s       0.000025      0.000001      0.000077      0.000000
[...]
    298 O3    s      -0.000172     -0.000216     -0.001034      0.000000
    299 O2    s      -0.000003      0.000035     -0.000039      0.000000
    300 O3    s       0.000082      0.000057      0.000111      0.000000
    301 O3    s      -0.000064      0.000087      0.000321      0.000000
    302 O2    s      -0.000039      0.000015      0.000042      0.000000
    303 O3    s      -0.000003      0.000024     -0.000163      0.000000
    304 O2    s      -0.000081      0.000058     -0.000035      0.000000
    305 O3    s      -0.000105      0.000094      0.000021      0.000000
    306 O3    s      -0.000216      0.000194     -0.000029      0.000000
    307 F     s       0.000360     -0.000537      0.000700      0.000000
    308 F     s       0.000061     -0.000032     -0.000182      0.000000
    309 F     s      -0.000058      0.000044     -0.000020      0.000000
    310 F     s      -0.000124      0.000321      0.000794      0.000000
    311 F     s      -0.000616      0.000243     -0.000611      0.000000
    312 F     s       0.000174     -0.000105     -0.000041      0.000000
  Maximum abs         0.001063      0.001329      0.003568      0.000000

  Time to end of optimisation =      13.4875 seconds

  Timing analysis for GULP :

  Task / Subroutine                                          Time (Seconds)
  Calculation of reciprocal space energy and derivatives          0.3228
  Calculation of real space energy and derivatives                7.4415
  Calculation of three-body energy and derivatives                0.4466

  Dump file written as 13.2.res
  CIF file written as 13.2.cif

  Job Finished at 03:23.55 18th December   2016