  Job Started  at 05:47.57 18th December   2016

  Number of CPUs =     1

  Total number of configurations input =   1

*  Input for Configuration =   1                                               *

  Formula = Si42Ge18O120F6

  Number of irreducible atoms/shells =     312

  Total number atoms/shells =     312

  Dimensionality = 3               :  Bulk

  Charge on solid   =  -6.000000 =>neutralising background added

  Cartesian lattice vectors (Angstroms) :

       12.052821    0.000000    0.000000
       -6.042069   10.456673    0.000000
        0.027033   -0.150720   29.907501

  Cell parameters (Angstroms/Degrees):

  a =      12.0528    alpha =  90.2759
  b =      12.0768    beta  =  89.9482
  c =      29.9079    gamma = 120.0202

  Initial cell volume =        3769.314394 Angs**3

  Temperature of configuration =  0.000     K

  Pressure of configuration =         0.000 GPa

  Fractional coordinates of asymmetric unit :

   No.  Atomic       x           y          z         Charge      Occupancy
        Label      (Frac)      (Frac)     (Frac)        (e)         (Frac)
      1 Si    c    0.699600    0.375700    0.033890     4.00000    1.000000
      2 Ge    c    0.631823 *  0.312460 *  0.363666 *   4.00000    1.000000
      3 Si    c    0.672440 *  0.296505 *  0.710065 *   4.00000    1.000000
      4 Ge    c    0.314991 *  0.624909 *  0.537714 *   4.00000    1.000000
      5 Si    c    0.381238 *  0.669892 *  0.868440 *   4.00000    1.000000
      6 Si    c    0.321750 *  0.704500 *  0.192213 *   4.00000    1.000000
      7 Si    c    0.369648 *  0.694512 *  0.291184 *   4.00000    1.000000
      8 Si    c    0.321620 *  0.618726 *  0.967361 *   4.00000    1.000000
      9 Si    c    0.313721 *  0.681643 *  0.639495 *   4.00000    1.000000
     10 Si    c    0.619217 *  0.290561 *  0.809418 *   4.00000    1.000000
     11 Ge    c    0.700202 *  0.374992 *  0.466152 *   4.00000    1.000000
     12 Si    c    0.706591 *  0.325466 *  0.132858 *   4.00000    1.000000
     13 Si    c    0.526189 *  0.416441 *  0.971979 *   4.00000    1.000000
     14 Si    c    0.585834 *  0.100778 *  0.295371 *   4.00000    1.000000
     15 Ge    c    0.882816 *  0.452271 *  0.642829 *   4.00000    1.000000
     16 Ge    c    0.482280 *  0.595500 *  0.464192 *   4.00000    1.000000
     17 Si    c    0.423391 *  0.883217 *  0.805583 *   4.00000    1.000000
     18 Si    c    0.110344 *  0.529656 *  0.129381 *   4.00000    1.000000
     19 Ge    c    0.427637 *  0.544677 *  0.360048 *   4.00000    1.000000
     20 Si    c    0.106939 *  0.579402 *  0.029202 *   4.00000    1.000000
     21 Si    c    0.480677 *  0.894100 *  0.705343 *   4.00000    1.000000
     22 Si    c    0.581557 *  0.465857 *  0.871808 *   4.00000    1.000000
     23 Ge    c    0.891206 *  0.398459 *  0.540984 *   4.00000    1.000000
     24 Si    c    0.535030 *  0.111586 *  0.195408 *   4.00000    1.000000
     25 Si    c    0.302891 *  0.392559 *  0.855867 *   4.00000    1.000000
     26 Si    c    0.600308 *  0.900424 *  0.179278 *   4.00000    1.000000
     27 Ge    c    0.092244 *  0.683186 *  0.517386 *   4.00000    1.000000
     28 Ge    c    0.710600 *  0.598994 *  0.346943 *   4.00000    1.000000
     29 Si    c    0.397978 *  0.093582 *  0.694212 *   4.00000    1.000000
     30 Si    c    0.898831 *  0.299585 *  0.017623 *   4.00000    1.000000
     31 Ge    c    0.413301 *  0.307785 *  0.481609 *   4.00000    1.000000
     32 Si    c    0.905415 *  0.603677 *  0.145252 *   4.00000    1.000000
     33 Si    c    0.701535 *  0.094127 *  0.820208 *   4.00000    1.000000
     34 Si    c    0.597834 *  0.696167 *  0.983765 *   4.00000    1.000000
     35 Ge    c    0.112053 *  0.393753 *  0.654713 *   4.00000    1.000000
     36 Si    c    0.302909 *  0.900961 *  0.307563 *   4.00000    1.000000
     37 Si    c    0.248719 *  0.338465 *  0.955224 *   4.00000    1.000000
     38 Si    c    0.652740 *  0.893230 *  0.278368 *   4.00000    1.000000
     39 Ge    c    0.087924 *  0.740595 *  0.620608 *   4.00000    1.000000
     40 Ge    c    0.764006 *  0.662273 *  0.448698 *   4.00000    1.000000
     41 Si    c    0.340987 *  0.080941 *  0.793708 *   4.00000    1.000000
     42 Si    c    0.911718 *  0.251273 *  0.116738 *   4.00000    1.000000
     43 Ge    c    0.346514 *  0.256082 *  0.379273 *   4.00000    1.000000
     44 Si    c    0.906950 *  0.656586 *  0.045693 *   4.00000    1.000000
     45 Si    c    0.758085 *  0.098111 *  0.720653 *   4.00000    1.000000
     46 Si    c    0.660265 *  0.743849 *  0.884629 *   4.00000    1.000000
     47 Ge    c    0.102609 *  0.329918 *  0.551238 *   4.00000    1.000000
     48 Si    c    0.255028 *  0.914868 *  0.208537 *   4.00000    1.000000
     49 Si    c    0.969218 *  0.120012 *  0.969468 *   4.00000    1.000000
     50 Si    c    0.878942 *  0.841537 *  0.293203 *   4.00000    1.000000
     51 Si    c    0.150607 *  0.023308 *  0.642943 *   4.00000    1.000000
     52 Ge    c    0.050184 *  0.879153 *  0.464037 *   4.00000    1.000000
     53 Si    c    0.123254 *  0.141219 *  0.807538 *   4.00000    1.000000
     54 Si    c    0.851054 *  0.972450 *  0.131139 *   4.00000    1.000000
     55 Ge    c    0.124777 *  0.975305 *  0.358321 *   4.00000    1.000000
     56 Si    c    0.847459 *  0.875725 *  0.032098 *   4.00000    1.000000
     57 Si    c    0.037206 *  0.148219 *  0.707996 *   4.00000    1.000000
     58 Si    c    0.878423 *  0.022579 *  0.870223 *   4.00000    1.000000
     59 Ge    c    0.177470 *  0.116071 *  0.539071 *   4.00000    1.000000
     60 Si    c    0.977730 *  0.854738 *  0.194268 *   4.00000    1.000000
     61 O2    c    0.928167 *  0.998356 *  0.000961 *   0.87073    1.000000
[...]
    172 O2    c    0.442134 *  0.407361 *  0.847969 *   0.87073    1.000000
    173 O1    c    0.975559 *  0.530261 *  0.506298 *   1.73396    1.000000
    174 O2    c    0.589407 *  0.026976 *  0.171845 *   0.87073    1.000000
    175 O2    c    0.587981 *  0.158093 *  0.245850 *   0.87073    1.000000
    176 O1    c    0.818094 *  0.404923 *  0.590132 *   1.73396    1.000000
    177 O2    c    0.580154 *  0.416279 *  0.922216 *   0.87073    1.000000
    178 O2    c    0.428603 *  0.836457 *  0.754897 *   0.87073    1.000000
    179 O2    c    0.160168 *  0.580028 *  0.079083 *   0.87073    1.000000
    180 O1    c    0.402197 *  0.577060 *  0.414430 *   1.73396    1.000000
    181 F     c    0.448664 *  0.897601 *  0.243913 *   0.56000    1.000000
    182 F     c    0.069201 *  0.515263 *  0.583983 *   0.56000    1.000000
    183 F     c    0.450537 *  0.546205 *  0.919296 *   0.56000    1.000000
    184 F     c    0.552892 *  0.097139 *  0.756130 *   0.56000    1.000000
    185 F     c    0.900549 *  0.449032 *  0.081330 *   0.56000    1.000000
    186 F     c    0.564612 *  0.468898 *  0.411381 *   0.56000    1.000000
    187 O2    s    0.923807 *  0.998255 *  0.000916 *  -2.87073    1.000000
    188 O3    s    0.985646 *  0.921191 *  0.328865 *  -3.33043    1.000000
    189 O2    s    0.071819 *  0.065437 *  0.675358 *  -2.87073    1.000000
    190 O1    s    0.122739 *  0.984889 *  0.507336 *  -3.73396    1.000000
    191 O2    s    0.001566 *  0.067264 *  0.839308 *  -2.87073    1.000000
    192 O2    s    0.927415 *  0.928288 *  0.163370 *  -2.87073    1.000000
    193 O3    s    0.343570 *  0.587675 *  0.323442 *  -3.33043    1.000000
    194 O2    s    0.426332 *  0.775345 *  0.672260 *  -2.87073    1.000000
    195 O2    s    0.228590 *  0.643937 *  0.997688 *  -2.87073    1.000000
    196 O2    s    0.645466 *  0.405383 *  0.841531 *  -2.87073    1.000000
    197 O2    s    0.593263 *  0.235699 *  0.165298 *  -2.87073    1.000000
    198 O1    s    0.766747 *  0.328144 *  0.503110 *  -3.73396    1.000000
    199 O2    s    0.581774 *  0.351017 *  0.003456 *  -2.87073    1.000000
    200 O3    s    0.756398 *  0.407461 *  0.679708 *  -3.33043    1.000000
    201 O3    s    0.655686 *  0.213670 *  0.327351 *  -3.33043    1.000000
    202 O1    s    0.435094 *  0.667676 *  0.502430 *  -3.73396    1.000000
    203 O2    s    0.233591 *  0.589875 *  0.159930 *  -2.87073    1.000000
    204 O2    s    0.358005 *  0.759782 *  0.835804 *  -2.87073    1.000000
    205 O2    s    0.119269 *  0.216640 *  0.972259 *  -2.87073    1.000000
    206 O2    s    0.772910 *  0.884942 *  0.295055 *  -2.87073    1.000000
    207 O3    s    0.096692 *  0.878230 *  0.643273 *  -3.33043    1.000000
    208 O1    s    0.893137 *  0.798428 *  0.468890 *  -3.73396    1.000000
    209 O2    s    0.217675 *  0.085564 *  0.810912 *  -2.87073    1.000000
    210 O2    s    0.906084 *  0.122587 *  0.133470 *  -2.87073    1.000000
    211 O1    s    0.219419 *  0.129993 *  0.353486 *  -3.73396    1.000000
    212 O2    s    0.899798 *  0.778596 *  0.028618 *  -2.87073    1.000000
    213 O2    s    0.887807 *  0.106649 *  0.703795 *  -2.87073    1.000000
    214 O2    s    0.783438 *  0.872539 *  0.867788 *  -2.87073    1.000000
    215 O1    s    0.108387 *  0.203403 *  0.529446 *  -3.73396    1.000000
    216 O2    s    0.127633 *  0.910698 *  0.190737 *  -2.87073    1.000000
    217 O2    s    0.942037 *  0.866739 *  0.244337 *  -2.87073    1.000000
    218 O3    s    0.147867 *  0.068859 *  0.594883 *  -3.33043    1.000000
    219 O2    s    0.928844 *  0.066225 *  0.919869 *  -2.87073    1.000000
    220 O2    s    0.070296 *  0.128412 *  0.758066 *  -2.87073    1.000000
    221 O2    s    0.861741 *  0.928514 *  0.081861 *  -2.87073    1.000000
    222 O1    s    0.096388 *  0.953973 *  0.414792 *  -3.73396    1.000000
    223 O2    s    0.905315 *  0.201423 *  0.983156 *  -2.87073    1.000000
    224 O3    s    0.813827 *  0.703223 *  0.305544 *  -3.33043    1.000000
    225 O2    s    0.296305 *  0.086279 *  0.659239 *  -2.87073    1.000000
    226 O1    s    0.092180 *  0.768651 *  0.473337 *  -3.73396    1.000000
    227 O2    s    0.206958 *  0.286947 *  0.821101 *  -2.87073    1.000000
    228 O2    s    0.705653 *  0.909926 *  0.144635 *  -2.87073    1.000000
    229 O3    s    0.208603 *  0.901586 *  0.342745 *  -3.33043    1.000000
    230 O2    s    0.701852 *  0.794646 *  0.018297 *  -2.87073    1.000000
    231 O3    s    0.111770 *  0.287479 *  0.694377 *  -3.33043    1.000000
    232 O2    s    0.797415 *  0.085379 *  0.854866 *  -2.87073    1.000000
    233 O1    s    0.328430 *  0.214653 *  0.525610 *  -3.73396    1.000000
    234 O2    s    0.914820 *  0.709249 *  0.179941 *  -2.87073    1.000000
    235 O2    s    0.321484 *  0.653642 *  0.241193 *  -2.87073    1.000000
    236 O3    s    0.356713 *  0.653956 *  0.593736 *  -3.33043    1.000000
    237 O2    s    0.328747 *  0.667228 *  0.917467 *  -2.87073    1.000000
    238 O2    s    0.666706 *  0.338631 *  0.760126 *  -2.87073    1.000000
    239 O2    s    0.657436 *  0.327358 *  0.083631 *  -2.87073    1.000000
    240 O1    s    0.715935 *  0.345597 *  0.411285 *  -3.73396    1.000000
    241 O2    s    0.373754 *  0.340005 *  0.972015 *  -2.87073    1.000000
    242 O2    s    0.654681 *  0.017685 *  0.295719 *  -2.87073    1.000000
[...]
   197  O2    s     0.596929    0.244314    0.165559    0.000000
   198  O1    s     0.757293    0.329552    0.504720    0.000000
   199  O2    s     0.579295    0.347067    0.004201    0.000000
   200  O3    s     0.745102    0.392718    0.681810    0.000000
   201  O3    s     0.659190    0.233054    0.328324    0.000000
   202  O1    s     0.425006    0.664306    0.502353    0.000000
   203  O2    s     0.238235    0.598950    0.159582    0.000000
   204  O2    s     0.349027    0.742436    0.834762    0.000000
   205  O2    s     0.114299    0.209430    0.972308    0.000000
   206  O2    s     0.778192    0.900682    0.295883    0.000000
   207  O3    s     0.088722    0.864935    0.645272    0.000000
   208  O1    s     0.903433    0.809030    0.475933    0.000000
   209  O2    s     0.206859    0.067827    0.810645    0.000000
   210  O2    s     0.909678    0.128106    0.133017    0.000000
   211  O1    s     0.220764    0.144313    0.359066    0.000000
   212  O2    s     0.898012    0.777297    0.028371    0.000000
   213  O2    s     0.875961    0.087833    0.703950    0.000000
   214  O2    s     0.776993    0.858031    0.868115    0.000000
   215  O1    s     0.091177    0.181694    0.531507    0.000000
   216  O2    s     0.129962    0.919878    0.191795    0.000000
   217  O2    s     0.938010    0.871049    0.243611    0.000000
   218  O3    s     0.142733    0.044703    0.592883    0.000000
   219  O2    s     0.924199    0.057704    0.919252    0.000000
   220  O2    s     0.062183    0.112333    0.756992    0.000000
   221  O2    s     0.859191    0.929179    0.081556    0.000000
   222  O1    s     0.080886    0.943137    0.412909    0.000000
   223  O2    s     0.902090    0.197352    0.982605    0.000000
   224  O3    s     0.823501    0.723119    0.310463    0.000000
   225  O2    s     0.288315    0.073380    0.659567    0.000000
   226  O1    s     0.090701    0.764566    0.473022    0.000000
   227  O2    s     0.198227    0.270399    0.821087    0.000000
   228  O2    s     0.708316    0.918113    0.145004    0.000000
   229  O3    s     0.217840    0.919733    0.343599    0.000000
   230  O2    s     0.697788    0.789558    0.018412    0.000000
   231  O3    s     0.096246    0.273291    0.695143    0.000000
   232  O2    s     0.786533    0.067826    0.854992    0.000000
   233  O1    s     0.325193    0.230410    0.531628    0.000000
   234  O2    s     0.919193    0.716050    0.179394    0.000000
   235  O2    s     0.327242    0.667984    0.241155    0.000000
   236  O3    s     0.340717    0.631356    0.593198    0.000000
   237  O2    s     0.323550    0.656341    0.916802    0.000000
   238  O2    s     0.656161    0.319815    0.761556    0.000000
   239  O2    s     0.660041    0.330633    0.083871    0.000000
   240  O1    s     0.714532    0.362772    0.414063    0.000000
   241  O2    s     0.368577    0.331982    0.972750    0.000000
   242  O2    s     0.661224    0.035661    0.296501    0.000000
   243  O1    s     0.956540    0.601972    0.645322    0.000000
   244  O1    s     0.646956    0.702574    0.464682    0.000000
   245  O2    s     0.332786    0.937860    0.806950    0.000000
   246  O2    s     0.041000    0.383385    0.131141    0.000000
[...]
   298  O2    s     0.433618    0.396338    0.851614    0.000000
   299  O1    s     0.964670    0.527188    0.508650    0.000000
   300  O2    s     0.587722    0.032310    0.175384    0.000000
   301  O2    s     0.587484    0.162342    0.246101    0.000000
   302  O1    s     0.811897    0.393551    0.591806    0.000000
   303  O2    s     0.567882    0.410181    0.922897    0.000000
   304  O2    s     0.421316    0.828275    0.753991    0.000000
   305  O2    s     0.150972    0.576561    0.078531    0.000000
   306  O1    s     0.414481    0.600937    0.414463    0.000000
   307  F     s     0.455566    0.915193    0.244803    0.000000
   308  F     s     0.036829    0.494180    0.580139    0.000000
   309  F     s     0.444644    0.534277    0.919648    0.000000
   310  F     s     0.540086    0.076019    0.756843    0.000000
   311  F     s     0.903156    0.452588    0.081286    0.000000
   312  F     s     0.541444    0.497171    0.422973    0.000000

  Final Cartesian lattice vectors (Angstroms) :

       12.057384    0.013290    0.002912
       -6.032827   10.450708   -0.075807
        0.034102   -0.363343   29.908577

  Final cell parameters and derivatives :

       a           12.057392 Angstrom     dE/de1(xx)     0.000302 eV/strain
       b           12.067231 Angstrom     dE/de2(yy)     0.000042 eV/strain
       c           29.910804 Angstrom     dE/de3(zz)     0.000472 eV/strain
       alpha       90.995384 Degrees      dE/de4(yz)    -0.000138 eV/strain
       beta        89.921606 Degrees      dE/de5(xz)     0.000037 eV/strain
       gamma      119.932625 Degrees      dE/de6(xy)     0.000105 eV/strain

  Primitive cell volume =          3770.797415 Angs**3

  Density of cell =      1.990830 g/cm**3

  Non-primitive cell volume =          3770.797415 Angs**3

  Final internal derivatives :

   No.  Atomic          a             b             c           Radius
        Label          (eV)          (eV)          (eV)        (eV/Angs)
      1 Si    c       0.000000      0.000000      0.000000      0.000000
      2 Ge    c       0.000228     -0.000073      0.000430      0.000000
      3 Si    c      -0.000004      0.000046     -0.000034      0.000000
      4 Ge    c       0.000128     -0.000157     -0.000270      0.000000
      5 Si    c      -0.000010     -0.000011      0.000029      0.000000
      6 Si    c      -0.000013      0.000014      0.000036      0.000000
      7 Si    c      -0.000045      0.000011      0.000233      0.000000
      8 Si    c      -0.000002     -0.000007     -0.000059      0.000000
      9 Si    c       0.000003      0.000017     -0.000023      0.000000
     10 Si    c      -0.000010      0.000029     -0.000039      0.000000
     11 Ge    c      -0.000281      0.000433     -0.000617      0.000000
     12 Si    c      -0.000014      0.000015      0.000020      0.000000
     13 Si    c       0.000000      0.000019     -0.000059      0.000000
     14 Si    c       0.000014     -0.000021      0.000055      0.000000
     15 Ge    c      -0.000033      0.000060     -0.000072      0.000000
     16 Ge    c      -0.000367     -0.000512     -0.000707      0.000000
     17 Si    c       0.000005     -0.000019     -0.000051      0.000000
     18 Si    c       0.000001      0.000002     -0.000038      0.000000
     19 Ge    c      -0.000566      0.000403     -0.000899      0.000000
     20 Si    c       0.000008     -0.000010      0.000045      0.000000
     21 Si    c      -0.000016     -0.000018      0.000031      0.000000
     22 Si    c       0.000006      0.000011      0.000022      0.000000
     23 Ge    c       0.000072      0.000133      0.000077      0.000000
     24 Si    c       0.000027      0.000008     -0.000001      0.000000
     25 Si    c      -0.000022      0.000005      0.000013      0.000000
     26 Si    c      -0.000005     -0.000002      0.000046      0.000000
     27 Ge    c      -0.000049     -0.000167     -0.000229      0.000000
     28 Ge    c       0.000216     -0.000127      0.000605      0.000000
     29 Si    c      -0.000018      0.000008     -0.000037      0.000000
     30 Si    c       0.000034     -0.000027      0.000023      0.000000
     31 Ge    c      -0.000189      0.000314     -0.000257      0.000000
     32 Si    c      -0.000024      0.000034      0.000009      0.000000
     33 Si    c      -0.000005      0.000007     -0.000055      0.000000
     34 Si    c       0.000023     -0.000005     -0.000030      0.000000
     35 Ge    c      -0.000006      0.000018     -0.000076      0.000000
     36 Si    c      -0.000007     -0.000029      0.000119      0.000000
     37 Si    c      -0.000018      0.000021     -0.000058      0.000000
     38 Si    c      -0.000025      0.000034     -0.000015      0.000000
     39 Ge    c       0.000015     -0.000105     -0.000054      0.000000
     40 Ge    c       0.000274     -0.000855     -0.001189      0.000000
     41 Si    c       0.000025     -0.000007     -0.000062      0.000000
     42 Si    c       0.000012     -0.000005     -0.000054      0.000000
     43 Ge    c      -0.000188      0.000233      0.000723      0.000000
     44 Si    c      -0.000011      0.000006      0.000067      0.000000
     45 Si    c      -0.000014      0.000003      0.000064      0.000000
     46 Si    c       0.000014     -0.000013      0.000048      0.000000
     47 Ge    c       0.000085      0.000035     -0.000090      0.000000
     48 Si    c       0.000029     -0.000043      0.000072      0.000000
     49 Si    c      -0.000006     -0.000021      0.000019      0.000000
     50 Si    c      -0.000217      0.000034     -0.000452      0.000000
     51 Si    c       0.000301     -0.000251      0.001114      0.000000
     52 Ge    c       0.000077     -0.000520     -0.000770      0.000000
     53 Si    c      -0.000012      0.000038      0.000060      0.000000
     54 Si    c      -0.000001      0.000011     -0.000076      0.000000
     55 Ge    c       0.000464      0.000049     -0.001845      0.000000
     56 Si    c       0.000001      0.000025      0.000034      0.000000
     57 Si    c      -0.000064      0.000069      0.000142      0.000000
     58 Si    c       0.000004     -0.000003      0.000045      0.000000
     59 Ge    c      -0.000156      0.000974      0.000036      0.000000
     60 Si    c       0.000010     -0.000057     -0.000016      0.000000
[...]
    172 O2    c       0.000005     -0.000001     -0.000001      0.000000
    173 O1    c      -0.000034      0.000123     -0.000071      0.000000
    174 O2    c       0.000001     -0.000003      0.000014      0.000000
    175 O2    c       0.000003     -0.000014     -0.000022      0.000000
    176 O1    c       0.000008     -0.000001     -0.000152      0.000000
    177 O2    c      -0.000019      0.000016      0.000005      0.000000
    178 O2    c      -0.000001      0.000022      0.000002      0.000000
    179 O2    c      -0.000018     -0.000000      0.000032      0.000000
    180 O1    c      -0.000532      0.000304     -0.000501      0.000000
    181 F     c       0.000001     -0.000006      0.000039      0.000000
    182 F     c      -0.000016     -0.000001     -0.000108      0.000000
    183 F     c      -0.000001      0.000003      0.000003      0.000000
    184 F     c       0.000000      0.000005     -0.000002      0.000000
    185 F     c       0.000002      0.000005     -0.000001      0.000000
    186 F     c      -0.000768      0.000434      0.001643      0.000000
    187 O2    s       0.000003     -0.000002      0.000014      0.000000
    188 O3    s      -0.000030      0.000062     -0.000812      0.000000
    189 O2    s      -0.000061      0.000121      0.000121      0.000000
    190 O1    s      -0.000062      0.000209      0.000543      0.000000
    191 O2    s      -0.000018      0.000012      0.000017      0.000000
    192 O2    s      -0.000003      0.000002     -0.000031      0.000000
    193 O3    s       0.000069     -0.000129     -0.000203      0.000000
    194 O2    s       0.000008     -0.000003     -0.000022      0.000000
    195 O2    s       0.000006     -0.000023     -0.000006      0.000000
    196 O2    s      -0.000004      0.000004      0.000036      0.000000
    197 O2    s      -0.000008      0.000009     -0.000010      0.000000
    198 O1    s       0.000022     -0.000061     -0.000046      0.000000
    199 O2    s       0.000006      0.000019      0.000005      0.000000
    200 O3    s      -0.000004      0.000009     -0.000041      0.000000
    201 O3    s      -0.000040      0.000022     -0.000085      0.000000
    202 O1    s       0.000661     -0.000213     -0.000361      0.000000
    203 O2    s       0.000007     -0.000008     -0.000006      0.000000
    204 O2    s       0.000004     -0.000003      0.000009      0.000000
    205 O2    s       0.000003     -0.000007     -0.000026      0.000000
    206 O2    s      -0.000152      0.000073     -0.000143      0.000000
    207 O3    s       0.000131     -0.000313     -0.000034      0.000000
    208 O1    s      -0.000177      0.000135      0.000174      0.000000
    209 O2    s       0.000009     -0.000004     -0.000016      0.000000
    210 O2    s      -0.000001      0.000002     -0.000032      0.000000
    211 O1    s       0.000250      0.000292      0.000196      0.000000
    212 O2    s      -0.000004      0.000002      0.000023      0.000000
    213 O2    s      -0.000033      0.000025      0.000034      0.000000
    214 O2    s      -0.000001      0.000005      0.000015      0.000000
    215 O1    s      -0.000142      0.000210      0.000081      0.000000
    216 O2    s       0.000009      0.000000      0.000008      0.000000
    217 O2    s      -0.000021      0.000055     -0.000345      0.000000
    218 O3    s      -0.000042      0.000198      0.000500      0.000000
    219 O2    s       0.000005     -0.000001      0.000015      0.000000
    220 O2    s      -0.000015      0.000004      0.000095      0.000000
    221 O2    s       0.000000      0.000005      0.000000      0.000000
    222 O1    s       0.000310     -0.000176     -0.002119      0.000000
    223 O2    s       0.000003     -0.000005      0.000018      0.000000
    224 O3    s      -0.000121     -0.000019     -0.000145      0.000000
    225 O2    s       0.000112     -0.000010      0.000412      0.000000
    226 O1    s       0.000197     -0.000175      0.000541      0.000000
    227 O2    s      -0.000011      0.000015      0.000053      0.000000
    228 O2    s       0.000009      0.000001      0.000010      0.000000
    229 O3    s       0.000146     -0.000134     -0.000519      0.000000
    230 O2    s       0.000007     -0.000002     -0.000015      0.000000
    231 O3    s      -0.000017      0.000023     -0.000113      0.000000
    232 O2    s      -0.000002     -0.000006     -0.000036      0.000000
    233 O1    s       0.000275      0.000121     -0.000692      0.000000
    234 O2    s      -0.000011      0.000006     -0.000044      0.000000
    235 O2    s       0.000026     -0.000024      0.000027      0.000000
    236 O3    s       0.000013      0.000012      0.000066      0.000000
    237 O2    s       0.000000     -0.000006      0.000009      0.000000
    238 O2    s       0.000002     -0.000003      0.000008      0.000000
    239 O2    s      -0.000002      0.000003      0.000010      0.000000
    240 O1    s       0.000171     -0.000288     -0.000093      0.000000
    241 O2    s      -0.000004      0.000014     -0.000026      0.000000
    242 O2    s      -0.000016      0.000008     -0.000030      0.000000
    243 O1    s       0.000001      0.000030      0.000032      0.000000
    244 O1    s      -0.001438     -0.000456     -0.000057      0.000000
    245 O2    s       0.000012     -0.000002     -0.000011      0.000000
    246 O2    s       0.000000     -0.000000     -0.000015      0.000000
[...]
    298 O2    s      -0.000005      0.000009      0.000051      0.000000
    299 O1    s       0.000073     -0.000080      0.000413      0.000000
    300 O2    s      -0.000006     -0.000002      0.000019      0.000000
    301 O2    s      -0.000020      0.000014      0.000004      0.000000
    302 O1    s       0.000045     -0.000039      0.000086      0.000000
    303 O2    s       0.000003      0.000002      0.000005      0.000000
    304 O2    s       0.000000     -0.000002      0.000006      0.000000
    305 O2    s       0.000004     -0.000005     -0.000016      0.000000
    306 O1    s       0.000905     -0.000427      0.000206      0.000000
    307 F     s      -0.000004      0.000008     -0.000073      0.000000
    308 F     s      -0.000081     -0.000028      0.000078      0.000000
    309 F     s       0.000001     -0.000004     -0.000001      0.000000
    310 F     s      -0.000001     -0.000014      0.000007      0.000000
    311 F     s      -0.000002     -0.000010      0.000005      0.000000
    312 F     s       0.000661      0.000171     -0.001870      0.000000
  Maximum abs         0.001646      0.001001      0.003777      0.000000

  Time to end of optimisation =      48.3990 seconds

  Timing analysis for GULP :

  Task / Subroutine                                          Time (Seconds)
  Calculation of reciprocal space energy and derivatives          1.0551
  Calculation of real space energy and derivatives               26.8923
  Calculation of three-body energy and derivatives                2.3026

  Dump file written as 18.4.res
  CIF file written as 18.4.cif

  Job Finished at 05:48.46 18th December   2016