  Job Started  at 00:38.25  5th January    2017

  Number of CPUs =     1

  Total number of configurations input =   1

*  Input for Configuration =   1                                               *

  Formula = GeSi59O120F6

  Number of irreducible atoms/shells =     312

  Total number atoms/shells =     312

  Dimensionality = 3               :  Bulk

  Charge on solid   =  -6.000000 =>neutralising background added

  Cartesian lattice vectors (Angstroms) :

       11.925910    0.000000    0.000000
       -6.036747   10.363827    0.000000
       -0.158184   -0.217696   29.426323

  Cell parameters (Angstroms/Degrees):

  a =      11.9259    alpha =  90.2112
  b =      11.9938    beta  =  90.3080
  c =      29.4276    gamma = 120.2200

  Initial cell volume =        3637.036790 Angs**3

  Temperature of configuration =  0.000     K

  Pressure of configuration =         0.000 GPa

  Fractional coordinates of asymmetric unit :

   No.  Atomic       x           y          z         Charge      Occupancy
        Label      (Frac)      (Frac)     (Frac)        (e)         (Frac)
      1 Ge    c    0.699600    0.375700    0.033890     4.00000    1.000000
      2 Si    c    0.621188 *  0.322992 *  0.365176 *   4.00000    1.000000
      3 Si    c    0.677311 *  0.298722 *  0.698089 *   4.00000    1.000000
      4 Si    c    0.295377 *  0.620677 *  0.529780 *   4.00000    1.000000
      5 Si    c    0.376574 *  0.675248 *  0.862084 *   4.00000    1.000000
      6 Si    c    0.318581 *  0.703008 *  0.196342 *   4.00000    1.000000
      7 Si    c    0.374312 *  0.697500 *  0.296896 *   4.00000    1.000000
      8 Si    c    0.318989 *  0.621881 *  0.962167 *   4.00000    1.000000
      9 Si    c    0.297912 *  0.676483 *  0.630511 *   4.00000    1.000000
     10 Si    c    0.622552 *  0.297818 *  0.798802 *   4.00000    1.000000
     11 Si    c    0.675255 *  0.380973 *  0.465837 *   4.00000    1.000000
     12 Si    c    0.684323 *  0.317289 *  0.132612 *   4.00000    1.000000
     13 Si    c    0.529253 *  0.418135 *  0.966134 *   4.00000    1.000000
     14 Si    c    0.582506 *  0.109205 *  0.302056 *   4.00000    1.000000
     15 Si    c    0.886722 *  0.470341 *  0.632889 *   4.00000    1.000000
     16 Si    c    0.466245 *  0.583300 *  0.463862 *   4.00000    1.000000
     17 Si    c    0.416210 *  0.885761 *  0.797521 *   4.00000    1.000000
     18 Si    c    0.107140 *  0.532494 *  0.128755 *   4.00000    1.000000
     19 Si    c    0.414455 *  0.527101 *  0.361933 *   4.00000    1.000000
     20 Si    c    0.102882 *  0.581188 *  0.025376 *   4.00000    1.000000
     21 Si    c    0.469426 *  0.887819 *  0.695833 *   4.00000    1.000000
     22 Si    c    0.582638 *  0.469332 *  0.863857 *   4.00000    1.000000
     23 Si    c    0.885493 *  0.417678 *  0.531120 *   4.00000    1.000000
     24 Si    c    0.527597 *  0.111531 *  0.200780 *   4.00000    1.000000
     25 Si    c    0.300537 *  0.398095 *  0.847921 *   4.00000    1.000000
     26 Si    c    0.599215 *  0.904819 *  0.183202 *   4.00000    1.000000
     27 Si    c    0.093631 *  0.698011 *  0.515757 *   4.00000    1.000000
     28 Si    c    0.696655 *  0.599077 *  0.348897 *   4.00000    1.000000
     29 Si    c    0.398094 *  0.096533 *  0.682315 *   4.00000    1.000000
     30 Si    c    0.888506 *  0.292839 *  0.010772 *   4.00000    1.000000
     31 Si    c    0.395413 *  0.303483 *  0.479164 *   4.00000    1.000000
     32 Si    c    0.891294 *  0.602640 *  0.142252 *   4.00000    1.000000
     33 Si    c    0.698880 *  0.096150 *  0.812639 *   4.00000    1.000000
     34 Si    c    0.597839 *  0.699639 *  0.978336 *   4.00000    1.000000
     35 Si    c    0.097025 *  0.398605 *  0.646191 *   4.00000    1.000000
     36 Si    c    0.299459 *  0.899048 *  0.314061 *   4.00000    1.000000
     37 Si    c    0.249406 *  0.342372 *  0.948258 *   4.00000    1.000000
     38 Si    c    0.657738 *  0.907850 *  0.283978 *   4.00000    1.000000
     39 Si    c    0.088207 *  0.749050 *  0.616677 *   4.00000    1.000000
     40 Si    c    0.746230 *  0.660412 *  0.449646 *   4.00000    1.000000
     41 Si    c    0.339914 *  0.087614 *  0.782909 *   4.00000    1.000000
     42 Si    c    0.901240 *  0.249953 *  0.113875 *   4.00000    1.000000
     43 Si    c    0.338485 *  0.249685 *  0.378230 *   4.00000    1.000000
     44 Si    c    0.897887 *  0.660459 *  0.039594 *   4.00000    1.000000
     45 Si    c    0.749251 *  0.090206 *  0.711899 *   4.00000    1.000000
     46 Si    c    0.658297 *  0.747941 *  0.877727 *   4.00000    1.000000
     47 Si    c    0.086631 *  0.339728 *  0.545279 *   4.00000    1.000000
     48 Si    c    0.246773 *  0.910392 *  0.213572 *   4.00000    1.000000
     49 Si    c    0.971862 *  0.121334 *  0.962990 *   4.00000    1.000000
     50 Si    c    0.875663 *  0.845203 *  0.297834 *   4.00000    1.000000
     51 Si    c    0.149646 *  0.028748 *  0.630904 *   4.00000    1.000000
     52 Si    c    0.027017 *  0.878445 *  0.464666 *   4.00000    1.000000
     53 Si    c    0.121475 *  0.148662 *  0.797094 *   4.00000    1.000000
     54 Si    c    0.846210 *  0.973977 *  0.131146 *   4.00000    1.000000
     55 Si    c    0.120385 *  0.968316 *  0.363656 *   4.00000    1.000000
     56 Si    c    0.847168 *  0.883395 *  0.029489 *   4.00000    1.000000
     57 Si    c    0.028994 *  0.150682 *  0.696022 *   4.00000    1.000000
     58 Si    c    0.878602 *  0.025849 *  0.862315 *   4.00000    1.000000
     59 Si    c    0.148486 *  0.122370 *  0.530098 *   4.00000    1.000000
     60 Si    c    0.966951 *  0.851340 *  0.195970 *   4.00000    1.000000
     61 O2    c    0.928490 *  0.006460 *  0.998335 *   0.87073    1.000000
[...]
    172 O2    c    0.440048 *  0.409971 *  0.840573 *   0.87073    1.000000
    173 O2    c    0.967251 *  0.558014 *  0.507291 *   0.87073    1.000000
    174 O2    c    0.587386 *  0.031809 *  0.175900 *   0.87073    1.000000
    175 O2    c    0.581039 *  0.162989 *  0.251742 *   0.87073    1.000000
    176 O2    c    0.832285 *  0.416742 *  0.581929 *   0.87073    1.000000
    177 O2    c    0.584459 *  0.421757 *  0.915092 *   0.87073    1.000000
    178 O2    c    0.415825 *  0.833721 *  0.746367 *   0.87073    1.000000
    179 O2    c    0.151034 *  0.579172 *  0.077184 *   0.87073    1.000000
    180 O2    c    0.413288 *  0.581526 *  0.412577 *   0.87073    1.000000
    181 F     c    0.448229 *  0.901702 *  0.247909 *   0.56000    1.000000
    182 F     c    0.094709 *  0.547229 *  0.580457 *   0.56000    1.000000
    183 F     c    0.446475 *  0.551706 *  0.912563 *   0.56000    1.000000
    184 F     c    0.548405 *  0.096194 *  0.746957 *   0.56000    1.000000
    185 F     c    0.851303 *  0.434912 *  0.069830 *   0.56000    1.000000
    186 F     c    0.546514 *  0.452334 *  0.413301 *   0.56000    1.000000
    187 O2    s    0.924079 *  0.005425 *  0.997889 *  -2.87073    1.000000
    188 O2    s    0.999573 *  0.921834 *  0.329908 *  -2.87073    1.000000
    189 O2    s    0.073056 *  0.074922 *  0.662706 *  -2.87073    1.000000
    190 O2    s    0.073827 *  0.001209 *  0.496815 *  -2.87073    1.000000
    191 O2    s    0.998948 *  0.072150 *  0.829142 *  -2.87073    1.000000
    192 O2    s    0.924627 *  0.931463 *  0.164208 *  -2.87073    1.000000
    193 O2    s    0.348434 *  0.581549 *  0.328761 *  -2.87073    1.000000
    194 O2    s    0.414339 *  0.766699 *  0.663034 *  -2.87073    1.000000
    195 O2    s    0.225690 *  0.646124 *  0.994232 *  -2.87073    1.000000
    196 O2    s    0.648484 *  0.412451 *  0.831817 *  -2.87073    1.000000
    197 O2    s    0.583059 *  0.234915 *  0.170269 *  -2.87073    1.000000
    198 O2    s    0.762459 *  0.353199 *  0.498757 *  -2.87073    1.000000
    199 O3    s    0.572285 *  0.348536 *  0.997771 *  -3.33043    1.000000
    200 O2    s    0.766417 *  0.414590 *  0.665595 *  -2.87073    1.000000
    201 O2    s    0.648279 *  0.230998 *  0.334240 *  -2.87073    1.000000
    202 O2    s    0.409784 *  0.647760 *  0.496288 *  -2.87073    1.000000
    203 O2    s    0.227968 *  0.589599 *  0.161768 *  -2.87073    1.000000
    204 O2    s    0.350400 *  0.764159 *  0.829243 *  -2.87073    1.000000
    205 O2    s    0.121789 *  0.217733 *  0.966208 *  -2.87073    1.000000
    206 O2    s    0.780701 *  0.900879 *  0.301433 *  -2.87073    1.000000
    207 O2    s    0.094049 *  0.878141 *  0.633988 *  -2.87073    1.000000
    208 O2    s    0.875574 *  0.784503 *  0.467348 *  -2.87073    1.000000
    209 O2    s    0.216487 *  0.093114 *  0.800392 *  -2.87073    1.000000
    210 O2    s    0.899524 *  0.124677 *  0.132665 *  -2.87073    1.000000
    211 O2    s    0.215441 *  0.119025 *  0.360582 *  -2.87073    1.000000
    212 O2    s    0.906261 *  0.793114 *  0.025826 *  -2.87073    1.000000
    213 O2    s    0.877873 *  0.095827 *  0.693686 *  -2.87073    1.000000
    214 O2    s    0.782359 *  0.875581 *  0.859607 *  -2.87073    1.000000
    215 O2    s    0.091142 *  0.215769 *  0.527741 *  -2.87073    1.000000
    216 O2    s    0.118320 *  0.906287 *  0.195326 *  -2.87073    1.000000
    217 O2    s    0.922930 *  0.855251 *  0.246631 *  -2.87073    1.000000
    218 O2    s    0.139352 *  0.069117 *  0.580116 *  -2.87073    1.000000
    219 O2    s    0.932384 *  0.064652 *  0.912880 *  -2.87073    1.000000
    220 O2    s    0.070855 *  0.138145 *  0.746173 *  -2.87073    1.000000
    221 O2    s    0.855206 *  0.931744 *  0.080960 *  -2.87073    1.000000
    222 O2    s    0.067679 *  0.928369 *  0.413920 *  -2.87073    1.000000
    223 O2    s    0.906944 *  0.202716 *  0.975690 *  -2.87073    1.000000
    224 O2    s    0.793578 *  0.700436 *  0.312829 *  -2.87073    1.000000
    225 O2    s    0.295412 *  0.091609 *  0.646150 *  -2.87073    1.000000
    226 O2    s    0.088237 *  0.794830 *  0.479854 *  -2.87073    1.000000
    227 O2    s    0.204264 *  0.294175 *  0.811702 *  -2.87073    1.000000
    228 O2    s    0.700937 *  0.911024 *  0.146969 *  -2.87073    1.000000
    229 O2    s    0.203539 *  0.905178 *  0.349924 *  -2.87073    1.000000
    230 O2    s    0.701164 *  0.798797 *  0.014407 *  -2.87073    1.000000
    231 O2    s    0.092118 *  0.296486 *  0.681727 *  -2.87073    1.000000
    232 O2    s    0.795693 *  0.089247 *  0.848501 *  -2.87073    1.000000
    233 O2    s    0.294036 *  0.207933 *  0.515240 *  -2.87073    1.000000
    234 O2    s    0.903171 *  0.707371 *  0.178485 *  -2.87073    1.000000
    235 O2    s    0.323388 *  0.653795 *  0.245989 *  -2.87073    1.000000
    236 O2    s    0.343141 *  0.671663 *  0.580064 *  -2.87073    1.000000
    237 O2    s    0.323182 *  0.671342 *  0.911932 *  -2.87073    1.000000
    238 O2    s    0.673144 *  0.344190 *  0.748543 *  -2.87073    1.000000
    239 O3    s    0.625619 *  0.309578 *  0.086834 *  -3.33043    1.000000
    240 O2    s    0.671762 *  0.330255 *  0.415576 *  -2.87073    1.000000
    241 O2    s    0.373796 *  0.342610 *  0.964213 *  -2.87073    1.000000
    242 O2    s    0.659259 *  0.033078 *  0.301488 *  -2.87073    1.000000
[...]
   197  O2    s     0.564738    0.221865    0.169258    0.000000
   198  O2    s     0.740620    0.338296    0.498789    0.000000
   199  O3    s     0.568499    0.343957    0.997444    0.000000
   200  O2    s     0.748084    0.401491    0.665466    0.000000
   201  O2    s     0.625350    0.215372    0.334027    0.000000
   202  O2    s     0.387479    0.632010    0.495982    0.000000
   203  O2    s     0.210462    0.576071    0.162691    0.000000
   204  O2    s     0.335071    0.751621    0.829310    0.000000
   205  O2    s     0.111648    0.206146    0.965932    0.000000
   206  O2    s     0.758245    0.885298    0.301595    0.000000
   207  O2    s     0.075626    0.864905    0.634073    0.000000
   208  O2    s     0.852433    0.768584    0.467043    0.000000
   209  O2    s     0.200487    0.080669    0.800195    0.000000
   210  O2    s     0.881648    0.112218    0.133004    0.000000
   211  O2    s     0.192363    0.102883    0.360336    0.000000
   212  O2    s     0.899643    0.789390    0.027027    0.000000
   213  O2    s     0.860979    0.083415    0.693685    0.000000
   214  O2    s     0.768127    0.864636    0.859274    0.000000
   215  O2    s     0.069296    0.200846    0.527743    0.000000
   216  O2    s     0.098590    0.893191    0.195387    0.000000
   217  O2    s     0.901863    0.840712    0.246856    0.000000
   218  O2    s     0.118718    0.054780    0.580190    0.000000
   219  O2    s     0.918813    0.054040    0.912836    0.000000
   220  O2    s     0.055116    0.127474    0.746259    0.000000
   221  O2    s     0.838244    0.921575    0.081090    0.000000
   222  O2    s     0.045408    0.913448    0.414082    0.000000
   223  O2    s     0.899765    0.196745    0.975181    0.000000
   224  O2    s     0.769915    0.684198    0.312503    0.000000
   225  O2    s     0.277286    0.078058    0.645836    0.000000
   226  O2    s     0.065555    0.779773    0.479873    0.000000
   227  O2    s     0.190105    0.282579    0.811834    0.000000
   228  O2    s     0.682083    0.898681    0.147019    0.000000
   229  O2    s     0.180910    0.889615    0.349822    0.000000
   230  O2    s     0.690500    0.788606    0.013926    0.000000
   231  O2    s     0.074645    0.284227    0.681563    0.000000
   232  O2    s     0.779880    0.077115    0.848477    0.000000
   233  O2    s     0.271216    0.191347    0.514849    0.000000
   234  O2    s     0.885191    0.693798    0.179122    0.000000
   235  O2    s     0.303252    0.640288    0.246388    0.000000
   236  O2    s     0.323023    0.657991    0.579671    0.000000
   237  O2    s     0.309715    0.659155    0.912201    0.000000
   238  O2    s     0.655538    0.330691    0.748214    0.000000
   239  O3    s     0.617010    0.304307    0.086074    0.000000
   240  O2    s     0.648846    0.314111    0.415486    0.000000
   241  O2    s     0.364349    0.332297    0.964606    0.000000
   242  O2    s     0.636941    0.018089    0.301352    0.000000
   243  O2    s     0.944026    0.610332    0.633094    0.000000
   244  O2    s     0.596958    0.644487    0.464534    0.000000
   245  O2    s     0.323088    0.948908    0.798317    0.000000
   246  O2    s     0.011547    0.367309    0.129193    0.000000
[...]
   298  O2    s     0.426398    0.404178    0.843455    0.000000
   299  O2    s     0.950857    0.544070    0.510621    0.000000
   300  O2    s     0.562688    0.013004    0.179099    0.000000
   301  O2    s     0.553948    0.137498    0.251210    0.000000
   302  O2    s     0.823629    0.408826    0.581915    0.000000
   303  O2    s     0.566947    0.416305    0.914327    0.000000
   304  O2    s     0.405078    0.832042    0.746235    0.000000
   305  O2    s     0.128809    0.563544    0.078411    0.000000
   306  O2    s     0.395456    0.559116    0.412530    0.000000
   307  F     s     0.426297    0.886147    0.247596    0.000000
   308  F     s     0.075264    0.534220    0.580059    0.000000
   309  F     s     0.433069    0.541387    0.912349    0.000000
   310  F     s     0.531658    0.083634    0.746521    0.000000
   311  F     s     0.834381    0.426034    0.067790    0.000000
   312  F     s     0.522920    0.435005    0.412941    0.000000

  Final Cartesian lattice vectors (Angstroms) :

       11.929359    0.004451   -0.004039
       -6.034625   10.372228    0.013322
       -0.168277   -0.185959   29.415114

  Final cell parameters and derivatives :

       a           11.929360 Angstrom     dE/de1(xx)     0.000227 eV/strain
       b           11.999999 Angstrom     dE/de2(yy)     0.000139 eV/strain
       c           29.416184 Angstrom     dE/de3(zz)     0.000108 eV/strain
       alpha       90.084642 Degrees      dE/de4(yz)     0.000082 eV/strain
       beta        90.347299 Degrees      dE/de5(xz)     0.000059 eV/strain
       gamma      120.169726 Degrees      dE/de6(xy)    -0.000004 eV/strain

  Primitive cell volume =          3640.458653 Angs**3

  Density of cell =      1.716881 g/cm**3

  Non-primitive cell volume =          3640.458653 Angs**3

  Final internal derivatives :

   No.  Atomic          a             b             c           Radius
        Label          (eV)          (eV)          (eV)        (eV/Angs)
      1 Ge    c       0.000000      0.000000      0.000000      0.000000
      2 Si    c       0.000004     -0.000004     -0.000002      0.000000
      3 Si    c      -0.000011     -0.000006      0.000022      0.000000
      4 Si    c       0.000015     -0.000008     -0.000065      0.000000
      5 Si    c       0.000045     -0.000032     -0.000015      0.000000
      6 Si    c       0.000019      0.000030     -0.000130      0.000000
      7 Si    c       0.000013      0.000046      0.000033      0.000000
      8 Si    c       0.000009     -0.000014     -0.000030      0.000000
      9 Si    c      -0.000008      0.000018      0.000121      0.000000
     10 Si    c      -0.000013     -0.000052     -0.000040      0.000000
     11 Si    c      -0.000002      0.000006     -0.000002      0.000000
     12 Si    c      -0.000124      0.000109     -0.001619      0.000000
     13 Si    c      -0.000422      0.000218     -0.000958      0.000000
     14 Si    c      -0.000014     -0.000014      0.000067      0.000000
     15 Si    c       0.000004      0.000003      0.000024      0.000000
     16 Si    c       0.000002      0.000005      0.000026      0.000000
     17 Si    c       0.000003      0.000018     -0.000010      0.000000
     18 Si    c       0.000068     -0.000001     -0.000088      0.000000
     19 Si    c       0.000015     -0.000011     -0.000000      0.000000
     20 Si    c      -0.000007     -0.000007      0.000200      0.000000
     21 Si    c       0.000008      0.000017      0.000028      0.000000
     22 Si    c      -0.000071      0.000074      0.000055      0.000000
     23 Si    c       0.000018     -0.000004      0.000021      0.000000
     24 Si    c      -0.000103      0.000006     -0.000113      0.000000
     25 Si    c       0.000026      0.000001     -0.000120      0.000000
     26 Si    c      -0.000043      0.000005     -0.000007      0.000000
     27 Si    c       0.000005      0.000000     -0.000032      0.000000
     28 Si    c       0.000004     -0.000010      0.000008      0.000000
     29 Si    c       0.000017     -0.000003     -0.000005      0.000000
     30 Si    c       0.000087     -0.000181      0.000147      0.000000
     31 Si    c      -0.000002     -0.000001      0.000004      0.000000
     32 Si    c      -0.000079      0.000063     -0.000284      0.000000
     33 Si    c      -0.000029      0.000009     -0.000009      0.000000
     34 Si    c       0.000003     -0.000023      0.000005      0.000000
     35 Si    c      -0.000002      0.000009      0.000027      0.000000
     36 Si    c       0.000046     -0.000008      0.000049      0.000000
     37 Si    c       0.000019      0.000037      0.000008      0.000000
     38 Si    c      -0.000019      0.000000      0.000075      0.000000
     39 Si    c       0.000004     -0.000016      0.000039      0.000000
     40 Si    c       0.000007     -0.000001      0.000022      0.000000
     41 Si    c       0.000016      0.000007      0.000042      0.000000
     42 Si    c       0.000021      0.000005      0.000038      0.000000
     43 Si    c       0.000001     -0.000005     -0.000012      0.000000
     44 Si    c       0.000032     -0.000109      0.000075      0.000000
     45 Si    c      -0.000019      0.000006      0.000016      0.000000
     46 Si    c      -0.000039      0.000001     -0.000099      0.000000
     47 Si    c      -0.000004      0.000001     -0.000051      0.000000
     48 Si    c       0.000046     -0.000005     -0.000076      0.000000
     49 Si    c       0.000050     -0.000100      0.000084      0.000000
     50 Si    c       0.000001      0.000021      0.000122      0.000000
     51 Si    c       0.000023     -0.000024      0.000038      0.000000
     52 Si    c      -0.000018      0.000024      0.000046      0.000000
     53 Si    c      -0.000001     -0.000007      0.000090      0.000000
     54 Si    c       0.000039     -0.000038     -0.000049      0.000000
     55 Si    c      -0.000014      0.000017      0.000005      0.000000
     56 Si    c      -0.000009      0.000169      0.000178      0.000000
     57 Si    c      -0.000014      0.000022     -0.000112      0.000000
     58 Si    c       0.000023     -0.000030     -0.000038      0.000000
     59 Si    c       0.000004      0.000004     -0.000052      0.000000
     60 Si    c       0.000033      0.000012     -0.000097      0.000000
[...]
    172 O2    c      -0.000010     -0.000003      0.000001      0.000000
    173 O2    c      -0.000001     -0.000007      0.000013      0.000000
    174 O2    c       0.000019     -0.000034     -0.000041      0.000000
    175 O2    c       0.000009      0.000028      0.000189      0.000000
    176 O2    c      -0.000001     -0.000008     -0.000069      0.000000
    177 O2    c       0.000005     -0.000035      0.000174      0.000000
    178 O2    c       0.000001     -0.000006      0.000003      0.000000
    179 O2    c      -0.000019      0.000007      0.000151      0.000000
    180 O2    c       0.000001      0.000001      0.000002      0.000000
    181 F     c      -0.000005      0.000024     -0.000047      0.000000
    182 F     c       0.000009      0.000009      0.000051      0.000000
    183 F     c      -0.000005      0.000006     -0.000049      0.000000
    184 F     c       0.000001      0.000005      0.000020      0.000000
    185 F     c      -0.000013      0.000013     -0.000044      0.000000
    186 F     c       0.000004     -0.000001     -0.000002      0.000000
    187 O2    s      -0.000032     -0.000002     -0.000041      0.000000
    188 O2    s       0.000006      0.000007      0.000040      0.000000
    189 O2    s      -0.000007     -0.000005     -0.000015      0.000000
    190 O2    s       0.000004      0.000001      0.000000      0.000000
    191 O2    s      -0.000018      0.000010      0.000026      0.000000
    192 O2    s      -0.000015     -0.000015      0.000016      0.000000
    193 O2    s      -0.000006      0.000001      0.000002      0.000000
    194 O2    s       0.000007      0.000016      0.000021      0.000000
    195 O2    s       0.000003     -0.000048     -0.000006      0.000000
    196 O2    s      -0.000028      0.000024     -0.000021      0.000000
    197 O2    s       0.000104     -0.000055      0.000118      0.000000
    198 O2    s       0.000004      0.000005      0.000001      0.000000
    199 O3    s      -0.000106      0.000492      0.000217      0.000000
    200 O2    s      -0.000004     -0.000001      0.000018      0.000000
    201 O2    s       0.000007     -0.000000     -0.000018      0.000000
    202 O2    s      -0.000001     -0.000001     -0.000012      0.000000
    203 O2    s      -0.000026      0.000004     -0.000007      0.000000
    204 O2    s       0.000004     -0.000004      0.000015      0.000000
    205 O2    s       0.000083      0.000006     -0.000133      0.000000
    206 O2    s       0.000002      0.000004      0.000000      0.000000
    207 O2    s      -0.000001     -0.000006      0.000001      0.000000
    208 O2    s       0.000009      0.000005      0.000001      0.000000
    209 O2    s       0.000004     -0.000024     -0.000016      0.000000
    210 O2    s      -0.000020      0.000009      0.000042      0.000000
    211 O2    s      -0.000012      0.000000     -0.000006      0.000000
    212 O2    s      -0.000016     -0.000063     -0.000036      0.000000
    213 O2    s      -0.000007     -0.000005     -0.000003      0.000000
    214 O2    s       0.000000     -0.000024      0.000072      0.000000
    215 O2    s       0.000010     -0.000007     -0.000039      0.000000
    216 O2    s       0.000026     -0.000016      0.000072      0.000000
    217 O2    s       0.000001     -0.000003     -0.000007      0.000000
    218 O2    s      -0.000003     -0.000006     -0.000032      0.000000
    219 O2    s      -0.000003     -0.000040      0.000000      0.000000
    220 O2    s      -0.000027      0.000012     -0.000014      0.000000
    221 O2    s      -0.000030     -0.000001      0.000143      0.000000
    222 O2    s      -0.000014      0.000006      0.000008      0.000000
    223 O2    s      -0.000085      0.000096      0.000146      0.000000
    224 O2    s       0.000002      0.000005     -0.000014      0.000000
    225 O2    s       0.000018     -0.000010      0.000007      0.000000
    226 O2    s      -0.000010      0.000005      0.000003      0.000000
    227 O2    s      -0.000014      0.000018      0.000028      0.000000
    228 O2    s      -0.000001      0.000002     -0.000033      0.000000
    229 O2    s      -0.000007     -0.000001      0.000021      0.000000
    230 O2    s      -0.000021      0.000032      0.000002      0.000000
    231 O2    s      -0.000011      0.000017     -0.000002      0.000000
    232 O2    s       0.000008     -0.000022     -0.000022      0.000000
    233 O2    s      -0.000013      0.000006     -0.000014      0.000000
    234 O2    s      -0.000027     -0.000035     -0.000129      0.000000
    235 O2    s      -0.000019      0.000024     -0.000124      0.000000
    236 O2    s      -0.000017     -0.000000      0.000066      0.000000
    237 O2    s       0.000005     -0.000010      0.000059      0.000000
    238 O2    s       0.000006     -0.000000     -0.000016      0.000000
    239 O3    s      -0.000214      0.000148     -0.000368      0.000000
    240 O2    s       0.000001      0.000004     -0.000010      0.000000
    241 O2    s      -0.000049      0.000019      0.000040      0.000000
    242 O2    s       0.000005      0.000005     -0.000014      0.000000
    243 O2    s      -0.000007      0.000004     -0.000001      0.000000
    244 O2    s       0.000006     -0.000003     -0.000013      0.000000
    245 O2    s      -0.000006     -0.000003     -0.000011      0.000000
    246 O2    s       0.000017      0.000027     -0.000052      0.000000
[...]
    298 O2    s      -0.000010      0.000015      0.000034      0.000000
    299 O2    s       0.000007      0.000011     -0.000025      0.000000
    300 O2    s       0.000011      0.000035      0.000030      0.000000
    301 O2    s       0.000005     -0.000032     -0.000058      0.000000
    302 O2    s      -0.000013      0.000010      0.000064      0.000000
    303 O2    s      -0.000019      0.000071     -0.000119      0.000000
    304 O2    s      -0.000001      0.000007      0.000007      0.000000
    305 O2    s       0.000005     -0.000027      0.000016      0.000000
    306 O2    s       0.000001     -0.000003     -0.000004      0.000000
    307 F     s       0.000010     -0.000046      0.000061      0.000000
    308 F     s      -0.000013     -0.000013     -0.000088      0.000000
    309 F     s       0.000010     -0.000014      0.000105      0.000000
    310 F     s       0.000000     -0.000010     -0.000032      0.000000
    311 F     s      -0.000032      0.000005      0.000034      0.000000
    312 F     s      -0.000009      0.000006      0.000008      0.000000
  Maximum abs         0.000422      0.000584      0.001619      0.000000

  Time to end of optimisation =      17.6280 seconds

  Timing analysis for GULP :

  Task / Subroutine                                          Time (Seconds)
  Calculation of reciprocal space energy and derivatives          0.3893
  Calculation of real space energy and derivatives                9.4145
  Calculation of three-body energy and derivatives                1.3294

  Dump file written as 1.1.res
  CIF file written as 1.1.cif

  Job Finished at 00:38.43  5th January    2017