  Job Started  at 01:29.30  5th January    2017

  Number of CPUs =     1

  Total number of configurations input =   1

*  Input for Configuration =   1                                               *

  Formula = Si59GeO120F6

  Number of irreducible atoms/shells =     312

  Total number atoms/shells =     312

  Dimensionality = 3               :  Bulk

  Charge on solid   =  -6.000000 =>neutralising background added

  Cartesian lattice vectors (Angstroms) :

       11.993825    0.000000    0.000000
       -5.992595   10.316006    0.000000
       -0.011607   -0.227220   29.429836

  Cell parameters (Angstroms/Degrees):

  a =      11.9938    alpha =  90.3712
  b =      11.9303    beta  =  90.0226
  c =      29.4307    gamma = 120.1524

  Initial cell volume =        3641.305522 Angs**3

  Temperature of configuration =  0.000     K

  Pressure of configuration =         0.000 GPa

  Fractional coordinates of asymmetric unit :

   No.  Atomic       x           y          z         Charge      Occupancy
        Label      (Frac)      (Frac)     (Frac)        (e)         (Frac)
      1 Si    c    0.699600    0.375700    0.033890     4.00000    1.000000
      2 Si    c    0.619542 *  0.324000 *  0.365880 *   4.00000    1.000000
      3 Si    c    0.679849 *  0.309646 *  0.699256 *   4.00000    1.000000
      4 Si    c    0.300229 *  0.623238 *  0.533431 *   4.00000    1.000000
      5 Si    c    0.379521 *  0.673447 *  0.868352 *   4.00000    1.000000
      6 Si    c    0.323680 *  0.701633 *  0.200405 *   4.00000    1.000000
      7 Si    c    0.378961 *  0.703192 *  0.301119 *   4.00000    1.000000
      8 Si    c    0.324588 *  0.620739 *  0.968623 *   4.00000    1.000000
      9 Si    c    0.295416 *  0.677811 *  0.634008 *   4.00000    1.000000
     10 Ge    c    0.611012 *  0.279839 *  0.797526 *   4.00000    1.000000
     11 Si    c    0.676311 *  0.378495 *  0.466506 *   4.00000    1.000000
     12 Si    c    0.702357 *  0.322624 *  0.134427 *   4.00000    1.000000
     13 Si    c    0.528978 *  0.413901 *  0.968364 *   4.00000    1.000000
     14 Si    c    0.582149 *  0.112925 *  0.300978 *   4.00000    1.000000
     15 Si    c    0.886947 *  0.469777 *  0.631356 *   4.00000    1.000000
     16 Si    c    0.471977 *  0.584399 *  0.468586 *   4.00000    1.000000
     17 Si    c    0.414374 *  0.885537 *  0.804361 *   4.00000    1.000000
     18 Si    c    0.112919 *  0.530083 *  0.134975 *   4.00000    1.000000
     19 Si    c    0.416894 *  0.532374 *  0.366731 *   4.00000    1.000000
     20 Si    c    0.113344 *  0.581896 *  0.033163 *   4.00000    1.000000
     21 Si    c    0.467310 *  0.887181 *  0.701101 *   4.00000    1.000000
     22 Si    c    0.582277 *  0.461240 *  0.865697 *   4.00000    1.000000
     23 Si    c    0.888912 *  0.416074 *  0.529844 *   4.00000    1.000000
     24 Si    c    0.530185 *  0.112854 *  0.199326 *   4.00000    1.000000
     25 Si    c    0.301189 *  0.394324 *  0.853137 *   4.00000    1.000000
     26 Si    c    0.601866 *  0.902788 *  0.185448 *   4.00000    1.000000
     27 Si    c    0.098795 *  0.698631 *  0.517187 *   4.00000    1.000000
     28 Si    c    0.697081 *  0.603381 *  0.351980 *   4.00000    1.000000
     29 Si    c    0.395657 *  0.101700 *  0.687864 *   4.00000    1.000000
     30 Si    c    0.901930 *  0.299578 *  0.018901 *   4.00000    1.000000
     31 Si    c    0.399769 *  0.302671 *  0.482298 *   4.00000    1.000000
     32 Si    c    0.904658 *  0.601694 *  0.149224 *   4.00000    1.000000
     33 Si    c    0.702033 *  0.098625 *  0.820336 *   4.00000    1.000000
     34 Si    c    0.601295 *  0.696153 *  0.983410 *   4.00000    1.000000
     35 Si    c    0.094086 *  0.398109 *  0.647918 *   4.00000    1.000000
     36 Si    c    0.301824 *  0.904811 *  0.315722 *   4.00000    1.000000
     37 Si    c    0.250899 *  0.338365 *  0.953905 *   4.00000    1.000000
     38 Si    c    0.660063 *  0.911839 *  0.286283 *   4.00000    1.000000
     39 Si    c    0.088201 *  0.750120 *  0.617867 *   4.00000    1.000000
     40 Si    c    0.749561 *  0.660785 *  0.452896 *   4.00000    1.000000
     41 Si    c    0.329248 *  0.086009 *  0.790243 *   4.00000    1.000000
     42 Si    c    0.910441 *  0.250340 *  0.119583 *   4.00000    1.000000
     43 Si    c    0.339630 *  0.252612 *  0.381516 *   4.00000    1.000000
     44 Si    c    0.911356 *  0.658136 *  0.048619 *   4.00000    1.000000
     45 Si    c    0.748583 *  0.092891 *  0.717053 *   4.00000    1.000000
     46 Si    c    0.658195 *  0.741799 *  0.882853 *   4.00000    1.000000
     47 Si    c    0.090256 *  0.340410 *  0.547031 *   4.00000    1.000000
     48 Si    c    0.251408 *  0.911528 *  0.214898 *   4.00000    1.000000
     49 Si    c    0.972134 *  0.119280 *  0.969224 *   4.00000    1.000000
     50 Si    c    0.877937 *  0.850655 *  0.301297 *   4.00000    1.000000
     51 Si    c    0.148295 *  0.030195 *  0.634901 *   4.00000    1.000000
     52 Si    c    0.030439 *  0.878421 *  0.467564 *   4.00000    1.000000
     53 Si    c    0.113539 *  0.145960 *  0.801584 *   4.00000    1.000000
     54 Si    c    0.849760 *  0.970443 *  0.135317 *   4.00000    1.000000
     55 Si    c    0.121384 *  0.971993 *  0.366614 *   4.00000    1.000000
     56 Si    c    0.849988 *  0.876311 *  0.034260 *   4.00000    1.000000
     57 Si    c    0.025623 *  0.151454 *  0.699962 *   4.00000    1.000000
     58 Si    c    0.876427 *  0.020395 *  0.868869 *   4.00000    1.000000
     59 Si    c    0.153430 *  0.122903 *  0.533350 *   4.00000    1.000000
     60 Si    c    0.972061 *  0.850362 *  0.200416 *   4.00000    1.000000
     61 O2    c    0.930836 *  0.999589 *  0.002595 *   0.87073    1.000000
[...]
    172 O2    c    0.439680 *  0.409942 *  0.843752 *   0.87073    1.000000
    173 O2    c    0.975198 *  0.557768 *  0.507303 *   0.87073    1.000000
    174 O2    c    0.586893 *  0.027753 *  0.176485 *   0.87073    1.000000
    175 O2    c    0.583240 *  0.166557 *  0.250293 *   0.87073    1.000000
    176 O2    c    0.835473 *  0.417133 *  0.580364 *   0.87073    1.000000
    177 O2    c    0.578443 *  0.410605 *  0.917570 *   0.87073    1.000000
    178 O2    c    0.418838 *  0.840575 *  0.752356 *   0.87073    1.000000
    179 O2    c    0.166037 *  0.582801 *  0.084217 *   0.87073    1.000000
    180 O2    c    0.418238 *  0.585580 *  0.417932 *   0.87073    1.000000
    181 F     c    0.452746 *  0.904528 *  0.251197 *   0.56000    1.000000
    182 F     c    0.096950 *  0.549657 *  0.583381 *   0.56000    1.000000
    183 F     c    0.448972 *  0.548917 *  0.918783 *   0.56000    1.000000
    184 F     c    0.556749 *  0.133447 *  0.760781 *   0.56000    1.000000
    185 F     c    0.903619 *  0.450817 *  0.084950 *   0.56000    1.000000
    186 F     c    0.547843 *  0.453117 *  0.417867 *   0.56000    1.000000
    187 O2    s    0.926373 *  0.999184 *  0.002401 *  -2.87073    1.000000
    188 O2    s    0.998960 *  0.925592 *  0.334474 *  -2.87073    1.000000
    189 O2    s    0.070039 *  0.073785 *  0.667280 *  -2.87073    1.000000
    190 O2    s    0.077285 *  0.999122 *  0.501313 *  -2.87073    1.000000
    191 O2    s    0.992513 *  0.071450 *  0.833748 *  -2.87073    1.000000
    192 O2    s    0.925824 *  0.926491 *  0.168473 *  -2.87073    1.000000
    193 O2    s    0.352194 *  0.588315 *  0.334304 *  -2.87073    1.000000
    194 O2    s    0.410381 *  0.767473 *  0.667913 *  -2.87073    1.000000
    195 O2    s    0.234730 *  0.647190 *  0.001124 *  -2.87073    1.000000
    196 O3    s    0.644716 *  0.410911 *  0.834604 *  -3.33043    1.000000
    197 O2    s    0.586773 *  0.233956 *  0.167056 *  -2.87073    1.000000
    198 O2    s    0.767252 *  0.350995 *  0.497765 *  -2.87073    1.000000
    199 O2    s    0.584851 *  0.348747 *  0.001202 *  -2.87073    1.000000
    200 O2    s    0.763895 *  0.413415 *  0.662325 *  -2.87073    1.000000
    201 O2    s    0.646995 *  0.235800 *  0.333294 *  -2.87073    1.000000
    202 O2    s    0.416284 *  0.649939 *  0.501486 *  -2.87073    1.000000
    203 O2    s    0.234370 *  0.585906 *  0.167585 *  -2.87073    1.000000
    204 O2    s    0.352389 *  0.763330 *  0.835494 *  -2.87073    1.000000
    205 O2    s    0.122339 *  0.215310 *  0.971963 *  -2.87073    1.000000
    206 O2    s    0.783734 *  0.907101 *  0.303859 *  -2.87073    1.000000
    207 O2    s    0.092413 *  0.878842 *  0.635872 *  -2.87073    1.000000
    208 O2    s    0.879771 *  0.783891 *  0.470550 *  -2.87073    1.000000
    209 O2    s    0.197994 *  0.079620 *  0.803781 *  -2.87073    1.000000
    210 O2    s    0.905098 *  0.121603 *  0.137520 *  -2.87073    1.000000
    211 O2    s    0.215813 *  0.123289 *  0.363891 *  -2.87073    1.000000
    212 O2    s    0.905618 *  0.781340 *  0.030992 *  -2.87073    1.000000
    213 O2    s    0.874882 *  0.097054 *  0.698040 *  -2.87073    1.000000
    214 O2    s    0.783921 *  0.870079 *  0.865554 *  -2.87073    1.000000
    215 O2    s    0.097178 *  0.217327 *  0.529684 *  -2.87073    1.000000
    216 O2    s    0.122714 *  0.906157 *  0.197543 *  -2.87073    1.000000
    217 O2    s    0.931117 *  0.860658 *  0.251180 *  -2.87073    1.000000
    218 O2    s    0.143275 *  0.074930 *  0.584483 *  -2.87073    1.000000
    219 O2    s    0.933044 *  0.063821 *  0.918754 *  -2.87073    1.000000
    220 O2    s    0.065602 *  0.142327 *  0.750437 *  -2.87073    1.000000
    221 O2    s    0.860573 *  0.927082 *  0.085178 *  -2.87073    1.000000
    222 O2    s    0.071007 *  0.931455 *  0.417365 *  -2.87073    1.000000
    223 O2    s    0.908601 *  0.202241 *  0.982994 *  -2.87073    1.000000
    224 O2    s    0.793157 *  0.704990 *  0.316037 *  -2.87073    1.000000
    225 O2    s    0.292532 *  0.092009 *  0.651578 *  -2.87073    1.000000
    226 O2    s    0.092764 *  0.794622 *  0.481389 *  -2.87073    1.000000
    227 O2    s    0.202526 *  0.290606 *  0.817025 *  -2.87073    1.000000
    228 O2    s    0.704208 *  0.907940 *  0.149874 *  -2.87073    1.000000
    229 O2    s    0.204613 *  0.910161 *  0.351583 *  -2.87073    1.000000
    230 O2    s    0.704790 *  0.793597 *  0.019420 *  -2.87073    1.000000
    231 O2    s    0.088252 *  0.296470 *  0.684076 *  -2.87073    1.000000
    232 O2    s    0.791072 *  0.080688 *  0.855718 *  -2.87073    1.000000
    233 O2    s    0.298194 *  0.205719 *  0.518372 *  -2.87073    1.000000
    234 O2    s    0.909883 *  0.704721 *  0.185333 *  -2.87073    1.000000
    235 O2    s    0.328148 *  0.656042 *  0.250818 *  -2.87073    1.000000
    236 O2    s    0.344080 *  0.673512 *  0.584245 *  -2.87073    1.000000
    237 O2    s    0.329729 *  0.672300 *  0.918467 *  -2.87073    1.000000
    238 O3    s    0.681536 *  0.361400 *  0.745300 *  -3.33043    1.000000
    239 O2    s    0.655154 *  0.326063 *  0.084205 *  -2.87073    1.000000
    240 O2    s    0.669896 *  0.327919 *  0.416158 *  -2.87073    1.000000
    241 O2    s    0.376112 *  0.338196 *  0.969861 *  -2.87073    1.000000
    242 O2    s    0.659906 *  0.037949 *  0.302378 *  -2.87073    1.000000
[...]
   197  O2    s     0.583032    0.233541    0.167018    0.000000
   198  O2    s     0.769150    0.356275    0.498457    0.000000
   199  O2    s     0.584294    0.348256    0.001167    0.000000
   200  O2    s     0.762659    0.416887    0.663226    0.000000
   201  O2    s     0.646227    0.241005    0.333696    0.000000
   202  O2    s     0.418459    0.655977    0.503541    0.000000
   203  O2    s     0.230510    0.585160    0.169835    0.000000
   204  O2    s     0.348235    0.765323    0.837359    0.000000
   205  O2    s     0.119887    0.213498    0.973210    0.000000
   206  O2    s     0.783677    0.912328    0.304741    0.000000
   207  O2    s     0.091332    0.883035    0.637097    0.000000
   208  O2    s     0.881641    0.789262    0.472149    0.000000
   209  O2    s     0.195133    0.081982    0.805457    0.000000
   210  O2    s     0.901108    0.120646    0.138799    0.000000
   211  O2    s     0.215939    0.129192    0.365441    0.000000
   212  O2    s     0.903853    0.781138    0.032289    0.000000
   213  O2    s     0.872305    0.099977    0.699480    0.000000
   214  O2    s     0.778377    0.869977    0.866553    0.000000
   215  O2    s     0.099225    0.223380    0.530889    0.000000
   216  O2    s     0.119618    0.905999    0.198411    0.000000
   217  O2    s     0.929743    0.862907    0.252294    0.000000
   218  O2    s     0.143811    0.079762    0.585628    0.000000
   219  O2    s     0.930483    0.062812    0.919648    0.000000
   220  O2    s     0.062948    0.143381    0.751394    0.000000
   221  O2    s     0.857049    0.926509    0.086225    0.000000
   222  O2    s     0.071075    0.936216    0.418402    0.000000
   223  O2    s     0.907407    0.201745    0.984007    0.000000
   224  O2    s     0.793176    0.710409    0.317635    0.000000
   225  O2    s     0.290725    0.096434    0.653362    0.000000
   226  O2    s     0.094908    0.800715    0.482662    0.000000
   227  O2    s     0.195917    0.291125    0.818558    0.000000
   228  O2    s     0.700296    0.906980    0.150921    0.000000
   229  O2    s     0.204750    0.916070    0.352611    0.000000
   230  O2    s     0.701944    0.791520    0.020651    0.000000
   231  O2    s     0.085843    0.299542    0.685465    0.000000
   232  O2    s     0.787778    0.081860    0.857303    0.000000
   233  O2    s     0.300325    0.211710    0.519981    0.000000
   234  O2    s     0.906465    0.704339    0.186648    0.000000
   235  O2    s     0.326532    0.658601    0.252813    0.000000
   236  O2    s     0.344235    0.678373    0.586097    0.000000
   237  O2    s     0.325367    0.671910    0.920283    0.000000
   238  O3    s     0.680216    0.364615    0.746410    0.000000
   239  O2    s     0.653831    0.326086    0.084271    0.000000
   240  O2    s     0.670412    0.332779    0.416998    0.000000
   241  O2    s     0.373289    0.336962    0.971004    0.000000
   242  O2    s     0.659207    0.042721    0.303028    0.000000
   243  O2    s     0.962222    0.627624    0.634511    0.000000
   244  O2    s     0.626978    0.667492    0.471358    0.000000
   245  O2    s     0.332839    0.961963    0.805555    0.000000
   246  O2    s     0.032949    0.375659    0.137443    0.000000
[...]
   298  O2    s     0.432675    0.414168    0.847768    0.000000
   299  O2    s     0.981594    0.563666    0.511768    0.000000
   300  O2    s     0.578781    0.022885    0.180505    0.000000
   301  O2    s     0.575698    0.157996    0.250569    0.000000
   302  O2    s     0.847025    0.427677    0.581274    0.000000
   303  O2    s     0.568218    0.414678    0.918157    0.000000
   304  O2    s     0.420979    0.852816    0.754073    0.000000
   305  O2    s     0.152481    0.576547    0.086249    0.000000
   306  O2    s     0.425407    0.586169    0.419954    0.000000
   307  F     s     0.450303    0.906361    0.252425    0.000000
   308  F     s     0.098376    0.555328    0.584889    0.000000
   309  F     s     0.443135    0.548556    0.920136    0.000000
   310  F     s     0.558490    0.147243    0.764694    0.000000
   311  F     s     0.900889    0.449967    0.085963    0.000000
   312  F     s     0.549519    0.458705    0.419543    0.000000

  Final Cartesian lattice vectors (Angstroms) :

       11.999998    0.000244   -0.006490
       -5.995470   10.313289    0.002481
       -0.027541   -0.229337   29.415282

  Final cell parameters and derivatives :

       a           12.000000 Angstrom     dE/de1(xx)     0.000634 eV/strain
       b           11.929359 Angstrom     dE/de2(yy)     0.000344 eV/strain
       c           29.416189 Angstrom     dE/de3(zz)    -0.000042 eV/strain
       alpha       90.347308 Degrees      dE/de4(yz)     0.000163 eV/strain
       beta        90.084638 Degrees      dE/de5(xz)    -0.000075 eV/strain
       gamma      120.169750 Degrees      dE/de6(xy)    -0.000047 eV/strain

  Primitive cell volume =          3640.458233 Angs**3

  Density of cell =      1.716882 g/cm**3

  Non-primitive cell volume =          3640.458233 Angs**3

  Final internal derivatives :

   No.  Atomic          a             b             c           Radius
        Label          (eV)          (eV)          (eV)        (eV/Angs)
      1 Si    c       0.000000      0.000000      0.000000      0.000000
      2 Si    c      -0.000127      0.000083      0.000041      0.000000
      3 Si    c      -0.000080      0.000103      0.002242      0.000000
      4 Si    c       0.000056      0.000035      0.000310      0.000000
      5 Si    c      -0.000004      0.000032      0.000382      0.000000
      6 Si    c       0.000056     -0.000165      0.001045      0.000000
      7 Si    c      -0.000119     -0.000124     -0.001042      0.000000
      8 Si    c      -0.000234      0.000059     -0.000301      0.000000
      9 Si    c      -0.000046     -0.000073     -0.000790      0.000000
     10 Ge    c       0.000301     -0.000090     -0.001994      0.000000
     11 Si    c      -0.000083      0.000061     -0.000038      0.000000
     12 Si    c       0.000188     -0.000074     -0.000921      0.000000
     13 Si    c       0.001141     -0.000676      0.001251      0.000000
     14 Si    c      -0.000020      0.000035     -0.000760      0.000000
     15 Si    c       0.000085     -0.000054     -0.000345      0.000000
     16 Si    c      -0.000005      0.000015      0.000141      0.000000
     17 Si    c      -0.000016     -0.000083     -0.000702      0.000000
     18 Si    c       0.000032      0.000010      0.000355      0.000000
     19 Si    c      -0.000097      0.000085     -0.000215      0.000000
     20 Si    c      -0.000091     -0.000055     -0.000175      0.000000
     21 Si    c      -0.000121     -0.000061      0.000656      0.000000
     22 Si    c      -0.000067      0.000087      0.000383      0.000000
     23 Si    c      -0.000056      0.000037     -0.000027      0.000000
     24 Si    c       0.000085      0.000135      0.000184      0.000000
     25 Si    c      -0.000092      0.000079     -0.000108      0.000000
     26 Si    c       0.000341     -0.000099      0.000165      0.000000
     27 Si    c      -0.000091      0.000111     -0.000059      0.000000
     28 Si    c       0.000051      0.000039      0.000085      0.000000
     29 Si    c      -0.000185     -0.000125     -0.000402      0.000000
     30 Si    c      -0.000013     -0.000109      0.000730      0.000000
     31 Si    c      -0.000049     -0.000034      0.000169      0.000000
     32 Si    c      -0.000057     -0.000142     -0.000610      0.000000
     33 Si    c       0.000495     -0.000452     -0.000000      0.000000
     34 Si    c       0.000210      0.000068      0.000100      0.000000
     35 Si    c       0.000121     -0.000308      0.000260      0.000000
     36 Si    c      -0.000325      0.000168     -0.000123      0.000000
     37 Si    c      -0.000166      0.000005     -0.000217      0.000000
     38 Si    c       0.000173     -0.000032     -0.000701      0.000000
     39 Si    c      -0.000053      0.000139     -0.000038      0.000000
     40 Si    c       0.000019      0.000022      0.000028      0.000000
     41 Si    c      -0.000207      0.000030     -0.001213      0.000000
     42 Si    c      -0.000034     -0.000033     -0.000269      0.000000
     43 Si    c      -0.000060     -0.000005     -0.000027      0.000000
     44 Si    c      -0.000347     -0.000031     -0.000297      0.000000
     45 Si    c       0.000075     -0.000021      0.000460      0.000000
     46 Si    c       0.000131      0.000109      0.000282      0.000000
     47 Si    c       0.000038     -0.000086      0.000045      0.000000
     48 Si    c      -0.000150      0.000074      0.000519      0.000000
     49 Si    c      -0.000150      0.000034      0.000337      0.000000
     50 Si    c       0.000341     -0.000076     -0.000642      0.000000
     51 Si    c      -0.000020     -0.000095      0.000214      0.000000
     52 Si    c       0.000017      0.000082      0.000142      0.000000
     53 Si    c      -0.000157      0.000235      0.000447      0.000000
     54 Si    c      -0.000045      0.000056      0.000514      0.000000
     55 Si    c       0.000032      0.000118     -0.000395      0.000000
     56 Si    c       0.000067     -0.000171     -0.000103      0.000000
     57 Si    c       0.000201      0.000201      0.000608      0.000000
     58 Si    c      -0.000321     -0.000026      0.000254      0.000000
     59 Si    c       0.000101     -0.000118      0.000225      0.000000
     60 Si    c      -0.000266      0.000298      0.000660      0.000000
[...]
    172 O2    c       0.000188     -0.000131     -0.000455      0.000000
    173 O2    c      -0.000034     -0.000042     -0.000058      0.000000
    174 O2    c      -0.000040      0.000090     -0.000119      0.000000
    175 O2    c       0.000030     -0.000158      0.000324      0.000000
    176 O2    c      -0.000009      0.000037      0.000377      0.000000
    177 O2    c       0.000063      0.000006     -0.000037      0.000000
    178 O2    c       0.000043      0.000139     -0.000238      0.000000
    179 O2    c       0.000055     -0.000013      0.000003      0.000000
    180 O2    c      -0.000031      0.000015     -0.000122      0.000000
    181 F     c      -0.000017      0.000021     -0.000149      0.000000
    182 F     c      -0.000046     -0.000006     -0.000288      0.000000
    183 F     c       0.000080     -0.000038     -0.000062      0.000000
    184 F     c       0.000109      0.000039     -0.000405      0.000000
    185 F     c      -0.000061     -0.000101     -0.000117      0.000000
    186 F     c      -0.000039      0.000025      0.000069      0.000000
    187 O2    s       0.000016     -0.000009      0.000145      0.000000
    188 O2    s       0.000021     -0.000034     -0.000208      0.000000
    189 O2    s      -0.000000      0.000008      0.000306      0.000000
    190 O2    s       0.000010      0.000038      0.000185      0.000000
    191 O2    s      -0.000357      0.000140      0.000192      0.000000
    192 O2    s      -0.000002     -0.000018      0.000258      0.000000
    193 O2    s      -0.000041      0.000070     -0.000051      0.000000
    194 O2    s      -0.000016     -0.000050      0.000031      0.000000
    195 O2    s      -0.000087      0.000147      0.000287      0.000000
    196 O3    s       0.000354     -0.000460     -0.000743      0.000000
    197 O2    s      -0.000044      0.000083     -0.000099      0.000000
    198 O2    s      -0.000032     -0.000023     -0.000043      0.000000
    199 O2    s      -0.000198     -0.000222      0.000705      0.000000
    200 O2    s       0.000011      0.000035     -0.000085      0.000000
    201 O2    s      -0.000005     -0.000009     -0.000102      0.000000
    202 O2    s       0.000001      0.000019      0.000002      0.000000
    203 O2    s       0.000049      0.000006     -0.000000      0.000000
    204 O2    s      -0.000066      0.000060     -0.000312      0.000000
    205 O2    s       0.000014     -0.000054      0.000064      0.000000
    206 O2    s       0.000081     -0.000070     -0.000010      0.000000
    207 O2    s      -0.000036     -0.000048      0.000243      0.000000
    208 O2    s       0.000004      0.000067      0.000132      0.000000
    209 O2    s       0.000437     -0.000247     -0.000587      0.000000
    210 O2    s       0.000034      0.000014      0.000223      0.000000
    211 O2    s      -0.000006      0.000104     -0.000227      0.000000
    212 O2    s       0.000018     -0.000062     -0.000242      0.000000
    213 O2    s       0.000028      0.000022     -0.000102      0.000000
    214 O2    s       0.000011     -0.000113     -0.000233      0.000000
    215 O2    s       0.000062     -0.000096      0.000017      0.000000
    216 O2    s      -0.000039      0.000011      0.000061      0.000000
    217 O2    s      -0.000004      0.000089      0.000186      0.000000
    218 O2    s      -0.000015     -0.000033     -0.000028      0.000000
    219 O2    s       0.000079      0.000001      0.000227      0.000000
    220 O2    s      -0.000023     -0.000213     -0.000027      0.000000
    221 O2    s      -0.000028      0.000016      0.000107      0.000000
    222 O2    s       0.000003      0.000013     -0.000007      0.000000
    223 O2    s       0.000102     -0.000016     -0.000184      0.000000
    224 O2    s       0.000017      0.000038     -0.000089      0.000000
    225 O2    s      -0.000036     -0.000016     -0.000191      0.000000
    226 O2    s      -0.000002      0.000062     -0.000126      0.000000
    227 O2    s      -0.000001      0.000196      0.000671      0.000000
    228 O2    s       0.000011     -0.000090      0.000167      0.000000
    229 O2    s      -0.000014     -0.000010     -0.000075      0.000000
    230 O2    s       0.000020      0.000057      0.000247      0.000000
    231 O2    s       0.000036     -0.000042     -0.000183      0.000000
    232 O2    s      -0.000093      0.000079     -0.000173      0.000000
    233 O2    s      -0.000034     -0.000049      0.000154      0.000000
    234 O2    s      -0.000009      0.000007      0.000077      0.000000
    235 O2    s      -0.000016     -0.000154     -0.000074      0.000000
    236 O2    s       0.000205     -0.000059     -0.000514      0.000000
    237 O2    s      -0.000168      0.000202      0.000089      0.000000
    238 O3    s       0.000150      0.000822     -0.000105      0.000000
    239 O2    s      -0.000590      0.000220      0.000591      0.000000
    240 O2    s      -0.000012     -0.000031      0.000013      0.000000
    241 O2    s       0.000135     -0.000016     -0.000089      0.000000
    242 O2    s       0.000004     -0.000027      0.000062      0.000000
    243 O2    s       0.000005      0.000028      0.000115      0.000000
    244 O2    s      -0.000003      0.000036      0.000039      0.000000
    245 O2    s      -0.000021      0.000218     -0.000235      0.000000
    246 O2    s       0.000034      0.000023      0.000178      0.000000
[...]
    298 O2    s       0.000007      0.000103      0.000414      0.000000
    299 O2    s      -0.000004      0.000005     -0.000072      0.000000
    300 O2    s      -0.000048     -0.000016      0.000164      0.000000
    301 O2    s      -0.000048      0.000121     -0.000279      0.000000
    302 O2    s      -0.000050     -0.000029     -0.000294      0.000000
    303 O2    s      -0.000198     -0.000071      0.000144      0.000000
    304 O2    s      -0.000060     -0.000005     -0.000043      0.000000
    305 O2    s      -0.000036      0.000024      0.000195      0.000000
    306 O2    s      -0.000010      0.000031     -0.000035      0.000000
    307 F     s       0.000030     -0.000027      0.000229      0.000000
    308 F     s       0.000073     -0.000015      0.000440      0.000000
    309 F     s      -0.000092      0.000038      0.000037      0.000000
    310 F     s      -0.000209     -0.000222      0.000534      0.000000
    311 F     s       0.000202      0.000178      0.000126      0.000000
    312 F     s       0.000062     -0.000029     -0.000147      0.000000
  Maximum abs         0.001141      0.000857      0.003271      0.000000

  Time to end of optimisation =      10.6427 seconds

  Timing analysis for GULP :

  Task / Subroutine                                          Time (Seconds)
  Calculation of reciprocal space energy and derivatives          0.3026
  Calculation of real space energy and derivatives                5.6094
  Calculation of three-body energy and derivatives                0.7888

  Dump file written as 1.3.res
  CIF file written as 1.3.cif

  Job Finished at 01:29.40  5th January    2017