  Job Started  at 08:33.01  5th January    2017

  Number of CPUs =     1

  Total number of configurations input =   1

*  Input for Configuration =   1                                               *

  Formula = Ge26Si34O120F6

  Number of irreducible atoms/shells =     312

  Total number atoms/shells =     312

  Dimensionality = 3               :  Bulk

  Charge on solid   =  -6.000000 =>neutralising background added

  Cartesian lattice vectors (Angstroms) :

       12.184520    0.000000    0.000000
       -6.094286   10.538722    0.000000
        0.377024   -0.603714   29.958887

  Cell parameters (Angstroms/Degrees):

  a =      12.1845    alpha =  91.3602
  b =      12.1739    beta  =  89.2791
  c =      29.9673    gamma = 120.0397

  Initial cell volume =        3846.998886 Angs**3

  Temperature of configuration =  0.000     K

  Pressure of configuration =         0.000 GPa

  Fractional coordinates of asymmetric unit :

   No.  Atomic       x           y          z         Charge      Occupancy
        Label      (Frac)      (Frac)     (Frac)        (e)         (Frac)
      1 Ge    c    0.699600    0.375700    0.033890     4.00000    1.000000
      2 Ge    c    0.631404 *  0.330661 *  0.366251 *   4.00000    1.000000
      3 Ge    c    0.675228 *  0.308717 *  0.696391 *   4.00000    1.000000
      4 Ge    c    0.319849 *  0.630894 *  0.529628 *   4.00000    1.000000
      5 Ge    c    0.372573 *  0.683104 *  0.863365 *   4.00000    1.000000
      6 Ge    c    0.329715 *  0.709976 *  0.197821 *   4.00000    1.000000
      7 Ge    c    0.366096 *  0.676522 *  0.295603 *   4.00000    1.000000
      8 Si    c    0.310026 *  0.630638 *  0.965101 *   4.00000    1.000000
      9 Ge    c    0.313301 *  0.697221 *  0.634132 *   4.00000    1.000000
     10 Ge    c    0.616372 *  0.318129 *  0.801174 *   4.00000    1.000000
     11 Ge    c    0.704523 *  0.366662 *  0.464939 *   4.00000    1.000000
     12 Ge    c    0.681793 *  0.319763 *  0.132553 *   4.00000    1.000000
     13 Ge    c    0.535861 *  0.427752 *  0.969056 *   4.00000    1.000000
     14 Ge    c    0.560094 *  0.097621 *  0.303499 *   4.00000    1.000000
     15 Ge    c    0.900069 *  0.476635 *  0.631388 *   4.00000    1.000000
     16 Ge    c    0.487431 *  0.565474 *  0.466305 *   4.00000    1.000000
     17 Ge    c    0.421624 *  0.904559 *  0.800621 *   4.00000    1.000000
     18 Ge    c    0.102545 *  0.548802 *  0.132794 *   4.00000    1.000000
     19 Ge    c    0.427166 *  0.511997 *  0.361479 *   4.00000    1.000000
     20 Ge    c    0.088455 *  0.586301 *  0.027248 *   4.00000    1.000000
     21 Ge    c    0.485440 *  0.923819 *  0.701536 *   4.00000    1.000000
     22 Ge    c    0.567524 *  0.494685 *  0.868983 *   4.00000    1.000000
     23 Ge    c    0.927935 *  0.429471 *  0.531236 *   4.00000    1.000000
     24 Ge    c    0.510152 *  0.096318 *  0.197827 *   4.00000    1.000000
     25 Si    c    0.292714 *  0.401820 *  0.843513 *   4.00000    1.000000
     26 Si    c    0.601568 *  0.896083 *  0.178056 *   4.00000    1.000000
     27 Ge    c    0.113786 *  0.707057 *  0.509533 *   4.00000    1.000000
     28 Si    c    0.718543 *  0.599555 *  0.343953 *   4.00000    1.000000
     29 Si    c    0.393541 *  0.104930 *  0.678580 *   4.00000    1.000000
     30 Si    c    0.887438 *  0.293612 *  0.012131 *   4.00000    1.000000
     31 Si    c    0.414565 *  0.276258 *  0.474692 *   4.00000    1.000000
     32 Si    c    0.875387 *  0.608044 *  0.141307 *   4.00000    1.000000
     33 Si    c    0.710060 *  0.121975 *  0.811352 *   4.00000    1.000000
     34 Ge    c    0.595132 *  0.717178 *  0.978349 *   4.00000    1.000000
     35 Si    c    0.117398 *  0.408027 *  0.643698 *   4.00000    1.000000
     36 Si    c    0.274141 *  0.872032 *  0.308746 *   4.00000    1.000000
     37 Ge    c    0.249711 *  0.349619 *  0.946692 *   4.00000    1.000000
     38 Si    c    0.648892 *  0.898516 *  0.280438 *   4.00000    1.000000
     39 Si    c    0.093967 *  0.758328 *  0.612578 *   4.00000    1.000000
     40 Si    c    0.769084 *  0.650517 *  0.446516 *   4.00000    1.000000
     41 Si    c    0.334570 *  0.097090 *  0.780961 *   4.00000    1.000000
     42 Si    c    0.902736 *  0.258950 *  0.114251 *   4.00000    1.000000
     43 Si    c    0.347265 *  0.226398 *  0.372396 *   4.00000    1.000000
     44 Si    c    0.880562 *  0.661919 *  0.038968 *   4.00000    1.000000
     45 Si    c    0.762871 *  0.107056 *  0.709502 *   4.00000    1.000000
     46 Si    c    0.663855 *  0.774324 *  0.876337 *   4.00000    1.000000
     47 Si    c    0.116772 *  0.341964 *  0.541915 *   4.00000    1.000000
     48 Si    c    0.225782 *  0.890084 *  0.206755 *   4.00000    1.000000
     49 Si    c    0.970317 *  0.124780 *  0.961337 *   4.00000    1.000000
     50 Si    c    0.874254 *  0.852236 *  0.294672 *   4.00000    1.000000
     51 Si    c    0.150624 *  0.033772 *  0.627217 *   4.00000    1.000000
     52 Si    c    0.041460 *  0.880342 *  0.459475 *   4.00000    1.000000
     53 Si    c    0.116613 *  0.156594 *  0.792829 *   4.00000    1.000000
     54 Si    c    0.856252 *  0.987885 *  0.128810 *   4.00000    1.000000
     55 Si    c    0.109951 *  0.959559 *  0.358584 *   4.00000    1.000000
     56 Si    c    0.842490 *  0.895235 *  0.028035 *   4.00000    1.000000
     57 Si    c    0.038070 *  0.160486 *  0.692223 *   4.00000    1.000000
     58 Si    c    0.883024 *  0.048863 *  0.859677 *   4.00000    1.000000
     59 Si    c    0.165456 *  0.114989 *  0.525761 *   4.00000    1.000000
     60 Si    c    0.958764 *  0.858350 *  0.193159 *   4.00000    1.000000
     61 O2    c    0.925747 *  0.002972 *  0.992299 *   0.87073    1.000000
[...]
    172 O3    c    0.422635 *  0.401054 *  0.838404 *   1.33043    1.000000
    173 O1    c    0.978480 *  0.567347 *  0.499112 *   1.73396    1.000000
    174 O3    c    0.589214 *  0.021677 *  0.175839 *   1.33043    1.000000
    175 O1    c    0.535857 *  0.142062 *  0.252172 *   1.73396    1.000000
    176 O1    c    0.844758 *  0.401680 *  0.581394 *   1.73396    1.000000
    177 O1    c    0.606001 *  0.447121 *  0.917587 *   1.73396    1.000000
    178 O1    c    0.429263 *  0.838555 *  0.750850 *   1.73396    1.000000
    179 O1    c    0.144403 *  0.612325 *  0.080179 *   1.73396    1.000000
    180 O1    c    0.413241 *  0.546779 *  0.416063 *   1.73396    1.000000
    181 F     c    0.413277 *  0.853133 *  0.235603 *   0.56000    1.000000
    182 F     c    0.086026 *  0.543311 *  0.566175 *   0.56000    1.000000
    183 F     c    0.467927 *  0.549337 *  0.905600 *   0.56000    1.000000
    184 F     c    0.538908 *  0.076817 *  0.737130 *   0.56000    1.000000
    185 F     c    0.849771 *  0.442218 *  0.069541 *   0.56000    1.000000
    186 F     c    0.569979 *  0.415994 *  0.401413 *   0.56000    1.000000
    187 O2    s    0.921669 *  0.004519 *  0.992800 *  -2.87073    1.000000
    188 O2    s    0.993534 *  0.930270 *  0.326901 *  -2.87073    1.000000
    189 O2    s    0.071291 *  0.079113 *  0.657683 *  -2.87073    1.000000
    190 O2    s    0.079643 *  0.998661 *  0.493140 *  -2.87073    1.000000
    191 O2    s    0.996932 *  0.083555 *  0.825056 *  -2.87073    1.000000
    192 O2    s    0.930501 *  0.946216 *  0.161950 *  -2.87073    1.000000
    193 O1    s    0.347355 *  0.564304 *  0.331037 *  -3.73396    1.000000
    194 O1    s    0.426687 *  0.785758 *  0.666628 *  -3.73396    1.000000
    195 O3    s    0.221446 *  0.658167 *  0.993566 *  -3.33043    1.000000
    196 O1    s    0.644336 *  0.434234 *  0.832945 *  -3.73396    1.000000
    197 O1    s    0.569078 *  0.231069 *  0.168854 *  -3.73396    1.000000
    198 O1    s    0.789318 *  0.342624 *  0.498832 *  -3.73396    1.000000
    199 O1    s    0.572945 *  0.346397 *  0.001160 *  -3.73396    1.000000
    200 O1    s    0.776666 *  0.432994 *  0.665705 *  -3.73396    1.000000
    201 O1    s    0.649057 *  0.220385 *  0.333210 *  -3.73396    1.000000
    202 O1    s    0.447326 *  0.648445 *  0.500360 *  -3.73396    1.000000
    203 O1    s    0.225796 *  0.586407 *  0.162280 *  -3.73396    1.000000
    204 O1    s    0.345311 *  0.784067 *  0.835843 *  -3.73396    1.000000
    205 O3    s    0.112237 *  0.215337 *  0.965563 *  -3.33043    1.000000
    206 O2    s    0.774000 *  0.896906 *  0.297636 *  -2.87073    1.000000
    207 O2    s    0.099203 *  0.887620 *  0.630342 *  -2.87073    1.000000
    208 O2    s    0.896858 *  0.772896 *  0.464044 *  -2.87073    1.000000
    209 O2    s    0.211298 *  0.104308 *  0.796312 *  -2.87073    1.000000
    210 O2    s    0.903837 *  0.133910 *  0.131152 *  -2.87073    1.000000
    211 O2    s    0.216492 *  0.103038 *  0.357204 *  -2.87073    1.000000
    212 O2    s    0.879243 *  0.786939 *  0.024150 *  -2.87073    1.000000
    213 O2    s    0.892797 *  0.116076 *  0.692431 *  -2.87073    1.000000
    214 O2    s    0.782286 *  0.903053 *  0.858241 *  -2.87073    1.000000
    215 O2    s    0.126379 *  0.220242 *  0.525863 *  -2.87073    1.000000
    216 O2    s    0.103114 *  0.898121 *  0.192514 *  -2.87073    1.000000
    217 O2    s    0.920085 *  0.865458 *  0.243847 *  -2.87073    1.000000
    218 O2    s    0.150157 *  0.067431 *  0.576016 *  -2.87073    1.000000
    219 O2    s    0.936158 *  0.084264 *  0.909438 *  -2.87073    1.000000
    220 O2    s    0.074522 *  0.145481 *  0.741892 *  -2.87073    1.000000
    221 O2    s    0.868961 *  0.950604 *  0.078311 *  -2.87073    1.000000
    222 O2    s    0.064112 *  0.926368 *  0.408975 *  -2.87073    1.000000
    223 O2    s    0.903644 *  0.200876 *  0.977726 *  -2.87073    1.000000
    224 O2    s    0.807179 *  0.710387 *  0.310318 *  -2.87073    1.000000
    225 O2    s    0.290110 *  0.102229 *  0.645363 *  -2.87073    1.000000
    226 O3    s    0.116686 *  0.817788 *  0.472496 *  -3.33043    1.000000
    227 O2    s    0.193342 *  0.298822 *  0.808426 *  -2.87073    1.000000
    228 O2    s    0.713353 *  0.917466 *  0.144088 *  -2.87073    1.000000
    229 O2    s    0.174975 *  0.882216 *  0.342061 *  -2.87073    1.000000
    230 O3    s    0.702315 *  0.828872 *  0.016341 *  -3.33043    1.000000
    231 O2    s    0.108001 *  0.302967 *  0.677602 *  -2.87073    1.000000
    232 O2    s    0.808830 *  0.117294 *  0.845427 *  -2.87073    1.000000
    233 O2    s    0.306587 *  0.180993 *  0.508773 *  -2.87073    1.000000
    234 O2    s    0.885404 *  0.717884 *  0.174902 *  -2.87073    1.000000
    235 O1    s    0.324673 *  0.626498 *  0.244301 *  -3.73396    1.000000
    236 O1    s    0.358704 *  0.700816 *  0.579582 *  -3.73396    1.000000
    237 O3    s    0.301274 *  0.652080 *  0.914212 *  -3.33043    1.000000
    238 O1    s    0.653268 *  0.355664 *  0.746217 *  -3.73396    1.000000
    239 O1    s    0.625051 *  0.303355 *  0.082292 *  -3.73396    1.000000
    240 O1    s    0.711060 *  0.329047 *  0.412372 *  -3.73396    1.000000
    241 O1    s    0.371957 *  0.337688 *  0.959091 *  -3.73396    1.000000
    242 O3    s    0.647787 *  0.018038 *  0.293078 *  -3.33043    1.000000
[...]
   197  O1    s     0.573129    0.240103    0.169887    0.000000
   198  O1    s     0.760334    0.343184    0.500223    0.000000
   199  O1    s     0.568480    0.345311    0.003237    0.000000
   200  O1    s     0.765829    0.430870    0.668461    0.000000
   201  O1    s     0.636066    0.218040    0.334467    0.000000
   202  O1    s     0.416278    0.642846    0.493678    0.000000
   203  O1    s     0.227233    0.596840    0.156302    0.000000
   204  O1    s     0.339879    0.766251    0.829445    0.000000
   205  O3    s     0.107029    0.212246    0.963149    0.000000
   206  O2    s     0.762646    0.894510    0.294853    0.000000
   207  O2    s     0.088987    0.888272    0.627995    0.000000
   208  O2    s     0.874298    0.777156    0.459606    0.000000
   209  O2    s     0.198819    0.087810    0.792107    0.000000
   210  O2    s     0.904168    0.136110    0.127686    0.000000
   211  O2    s     0.201705    0.100327    0.353413    0.000000
   212  O2    s     0.874745    0.785594    0.021253    0.000000
   213  O2    s     0.884677    0.111163    0.690062    0.000000
   214  O2    s     0.783245    0.891057    0.856617    0.000000
   215  O2    s     0.096373    0.210621    0.525122    0.000000
   216  O2    s     0.099829    0.906923    0.191198    0.000000
   217  O2    s     0.909631    0.862952    0.241005    0.000000
   218  O2    s     0.141460    0.067684    0.573257    0.000000
   219  O2    s     0.930993    0.079293    0.906740    0.000000
   220  O2    s     0.068789    0.144737    0.739448    0.000000
   221  O2    s     0.863191    0.948915    0.075708    0.000000
   222  O2    s     0.051587    0.926502    0.406406    0.000000
   223  O2    s     0.897508    0.196827    0.974752    0.000000
   224  O2    s     0.792166    0.705843    0.306358    0.000000
   225  O2    s     0.283843    0.099610    0.641977    0.000000
   226  O3    s     0.088174    0.808175    0.469976    0.000000
   227  O2    s     0.194483    0.288504    0.806553    0.000000
   228  O2    s     0.709722    0.924873    0.141461    0.000000
   229  O2    s     0.163785    0.881074    0.339754    0.000000
   230  O3    s     0.697885    0.827576    0.013710    0.000000
   231  O2    s     0.095672    0.303121    0.676198    0.000000
   232  O2    s     0.794933    0.098034    0.842732    0.000000
   233  O2    s     0.285543    0.186127    0.504976    0.000000
   234  O2    s     0.887018    0.720929    0.171819    0.000000
   235  O1    s     0.315960    0.633025    0.238916    0.000000
   236  O1    s     0.333826    0.690807    0.574105    0.000000
   237  O3    s     0.302845    0.647203    0.909568    0.000000
   238  O1    s     0.639359    0.342004    0.747034    0.000000
   239  O1    s     0.626659    0.303858    0.082529    0.000000
   240  O1    s     0.695332    0.334969    0.412104    0.000000
   241  O1    s     0.368172    0.334350    0.959398    0.000000
   242  O3    s     0.638123    0.017808    0.292474    0.000000
   243  O3    s     0.952827    0.638888    0.623512    0.000000
   244  O3    s     0.625939    0.659555    0.452448    0.000000
   245  O3    s     0.314701    0.955320    0.788409    0.000000
   246  O3    s     0.025546    0.383681    0.120522    0.000000
[...]
   298  O3    s     0.419125    0.394255    0.840681    0.000000
   299  O1    s     0.954389    0.561571    0.501798    0.000000
   300  O3    s     0.581451    0.024348    0.176145    0.000000
   301  O1    s     0.530626    0.138673    0.251772    0.000000
   302  O1    s     0.831936    0.407382    0.583692    0.000000
   303  O1    s     0.595871    0.442267    0.919580    0.000000
   304  O1    s     0.420309    0.835967    0.744505    0.000000
   305  O1    s     0.134358    0.602764    0.073682    0.000000
   306  O1    s     0.401490    0.546027    0.408618    0.000000
   307  F     s     0.403989    0.851659    0.230213    0.000000
   308  F     s     0.051428    0.531083    0.562769    0.000000
   309  F     s     0.471853    0.537936    0.902210    0.000000
   310  F     s     0.524146    0.054844    0.731617    0.000000
   311  F     s     0.840726    0.439352    0.064792    0.000000
   312  F     s     0.555325    0.411172    0.395530    0.000000

  Final Cartesian lattice vectors (Angstroms) :

       12.193344    0.004797    0.009990
       -6.094550   10.562305   -0.018702
        0.401622   -0.644016   30.008736

  Final cell parameters and derivatives :

       a           12.193349 Angstrom     dE/de1(xx)    -0.001558 eV/strain
       b           12.194514 Angstrom     dE/de2(yy)    -0.002015 eV/strain
       c           30.018332 Angstrom     dE/de3(zz)    -0.001102 eV/strain
       alpha       91.535842 Degrees      dE/de4(yz)    -0.000084 eV/strain
       beta        89.186958 Degrees      dE/de5(xz)     0.000463 eV/strain
       gamma      119.962848 Degrees      dE/de6(xy)    -0.000318 eV/strain

  Primitive cell volume =          3865.546706 Angs**3

  Density of cell =      2.095032 g/cm**3

  Non-primitive cell volume =          3865.546706 Angs**3

  Final internal derivatives :

   No.  Atomic          a             b             c           Radius
        Label          (eV)          (eV)          (eV)        (eV/Angs)
      1 Ge    c       0.000000      0.000000      0.000000      0.000000
      2 Ge    c       0.000123      0.000110      0.000887      0.000000
      3 Ge    c      -0.000369      0.000136      0.000277      0.000000
      4 Ge    c       0.000046     -0.000245     -0.001143      0.000000
      5 Ge    c       0.000348     -0.000621      0.000299      0.000000
      6 Ge    c       0.000408      0.000040     -0.000679      0.000000
      7 Ge    c      -0.000272      0.000733     -0.000610      0.000000
      8 Si    c      -0.000741      0.000330     -0.000080      0.000000
      9 Ge    c       0.000887      0.000164     -0.000741      0.000000
     10 Ge    c      -0.000388      0.000492      0.000460      0.000000
     11 Ge    c       0.000765     -0.000511      0.002284      0.000000
     12 Ge    c      -0.000269      0.000463      0.001690      0.000000
     13 Ge    c      -0.001029      0.000915     -0.002127      0.000000
     14 Ge    c      -0.000079     -0.000334      0.001347      0.000000
     15 Ge    c      -0.000815      0.000007      0.002409      0.000000
     16 Ge    c      -0.000172      0.000103     -0.000393      0.000000
     17 Ge    c       0.000392      0.000028     -0.001266      0.000000
     18 Ge    c       0.000186      0.000152     -0.000590      0.000000
     19 Ge    c       0.000245     -0.000235      0.000396      0.000000
     20 Ge    c      -0.000209     -0.000639      0.001219      0.000000
     21 Ge    c       0.000196     -0.000792     -0.000518      0.000000
     22 Ge    c       0.000353     -0.000253      0.000498      0.000000
     23 Ge    c      -0.000970      0.000276     -0.003607      0.000000
     24 Ge    c      -0.000012     -0.000184     -0.000533      0.000000
     25 Si    c       0.000066      0.000289      0.000553      0.000000
     26 Si    c      -0.000284      0.000107     -0.000221      0.000000
     27 Ge    c       0.000157     -0.000851      0.000751      0.000000
     28 Si    c      -0.000204     -0.000294      0.000763      0.000000
     29 Si    c      -0.000200      0.000356     -0.000848      0.000000
     30 Si    c      -0.000083      0.000483      0.001786      0.000000
     31 Si    c       0.000118     -0.000017      0.000681      0.000000
     32 Si    c      -0.000254     -0.000290     -0.001644      0.000000
     33 Si    c      -0.000125      0.000023      0.000222      0.000000
     34 Ge    c      -0.000049     -0.000318     -0.000067      0.000000
     35 Si    c       0.000200      0.000132     -0.000194      0.000000
     36 Si    c       0.000527     -0.000289      0.000340      0.000000
     37 Ge    c      -0.000142      0.000562      0.000428      0.000000
     38 Si    c      -0.000194      0.000014      0.001221      0.000000
     39 Si    c      -0.000502      0.000310      0.001460      0.000000
     40 Si    c      -0.000146      0.000034     -0.000592      0.000000
     41 Si    c       0.000166      0.000148     -0.000056      0.000000
     42 Si    c      -0.000080      0.000379     -0.000477      0.000000
     43 Si    c       0.000226      0.000097     -0.000451      0.000000
     44 Si    c       0.000695     -0.001216      0.002435      0.000000
     45 Si    c       0.000040     -0.000063      0.000352      0.000000
     46 Si    c      -0.000033     -0.000403      0.000826      0.000000
     47 Si    c      -0.000310      0.000025     -0.001049      0.000000
     48 Si    c       0.000161      0.000084     -0.000519      0.000000
     49 Si    c      -0.000067      0.000449      0.000966      0.000000
     50 Si    c      -0.000216      0.000221      0.000279      0.000000
     51 Si    c       0.000529     -0.000570      0.000373      0.000000
     52 Si    c       0.000293     -0.000244      0.001105      0.000000
     53 Si    c      -0.000518      0.000407     -0.000790      0.000000
     54 Si    c      -0.000065     -0.000133     -0.000258      0.000000
     55 Si    c      -0.000165      0.000098      0.000600      0.000000
     56 Si    c       0.000153      0.000168     -0.000113      0.000000
     57 Si    c      -0.000283     -0.000146      0.000148      0.000000
     58 Si    c       0.000177      0.000443     -0.001760      0.000000
     59 Si    c       0.000830     -0.000293      0.000514      0.000000
     60 Si    c       0.000272     -0.000236     -0.000538      0.000000
[...]
    172 O3    c      -0.000351      0.000156      0.000621      0.000000
    173 O1    c       0.001405     -0.000195      0.003802      0.000000
    174 O3    c      -0.000149      0.000013      0.000965      0.000000
    175 O1    c      -0.000130      0.000232     -0.001012      0.000000
    176 O1    c       0.000084     -0.000264     -0.000468      0.000000
    177 O1    c      -0.000356      0.000354      0.000284      0.000000
    178 O1    c       0.000039      0.000188     -0.000488      0.000000
    179 O1    c      -0.000270      0.000131     -0.000451      0.000000
    180 O1    c       0.000122     -0.000143     -0.000353      0.000000
    181 F     c      -0.000034     -0.000022     -0.000249      0.000000
    182 F     c       0.000259     -0.000065     -0.000199      0.000000
    183 F     c       0.000124     -0.000086     -0.000045      0.000000
    184 F     c       0.000008     -0.000096      0.000333      0.000000
    185 F     c       0.000445      0.000328     -0.000836      0.000000
    186 F     c       0.000015     -0.000010     -0.000261      0.000000
    187 O2    s      -0.000068      0.000112     -0.000396      0.000000
    188 O2    s       0.000039      0.000143      0.000532      0.000000
    189 O2    s      -0.000131     -0.000100      0.000491      0.000000
    190 O2    s       0.000316     -0.000548      0.000478      0.000000
    191 O2    s       0.000550      0.000230     -0.000520      0.000000
    192 O2    s       0.000045     -0.000004      0.000176      0.000000
    193 O1    s      -0.000097      0.000573     -0.001588      0.000000
    194 O1    s       0.000481     -0.000470     -0.000907      0.000000
    195 O3    s      -0.000536      0.000027      0.000304      0.000000
    196 O1    s      -0.000479      0.000210     -0.000541      0.000000
    197 O1    s       0.000335     -0.000682      0.000255      0.000000
    198 O1    s      -0.000414     -0.000210     -0.000048      0.000000
    199 O1    s       0.001326      0.001422     -0.001191      0.000000
    200 O1    s      -0.000932      0.000089      0.002373      0.000000
    201 O1    s      -0.000028     -0.000214      0.001526      0.000000
    202 O1    s      -0.000266     -0.000658      0.000785      0.000000
    203 O1    s       0.000253      0.000538      0.001234      0.000000
    204 O1    s       0.000953     -0.000491     -0.000150      0.000000
    205 O3    s       0.000065      0.000044     -0.001097      0.000000
    206 O2    s      -0.000111      0.000261     -0.000379      0.000000
    207 O2    s      -0.000201      0.000132      0.000737      0.000000
    208 O2    s       0.000384     -0.000121      0.000243      0.000000
    209 O2    s      -0.000254      0.000375     -0.001098      0.000000
    210 O2    s      -0.000053      0.000043      0.000089      0.000000
    211 O2    s       0.000086     -0.000122      0.000638      0.000000
    212 O2    s      -0.000379     -0.000128      0.000025      0.000000
    213 O2    s       0.000120     -0.000108     -0.000112      0.000000
    214 O2    s       0.000165     -0.000119     -0.000135      0.000000
    215 O2    s       0.000550     -0.000923      0.000493      0.000000
    216 O2    s       0.000066     -0.000163      0.000709      0.000000
    217 O2    s       0.000224     -0.000110     -0.000481      0.000000
    218 O2    s       0.000296     -0.000420      0.000897      0.000000
    219 O2    s       0.000017      0.000225      0.000414      0.000000
    220 O2    s       0.000077      0.000270     -0.000375      0.000000
    221 O2    s      -0.000089     -0.000047      0.000034      0.000000
    222 O2    s       0.000116     -0.000451      0.001132      0.000000
    223 O2    s      -0.000100      0.000145      0.000099      0.000000
    224 O2    s       0.000163     -0.000353      0.000503      0.000000
    225 O2    s      -0.000125      0.000119      0.000090      0.000000
    226 O3    s      -0.000114     -0.000668      0.001132      0.000000
    227 O2    s       0.000191     -0.000272      0.000828      0.000000
    228 O2    s      -0.000091     -0.000046      0.000145      0.000000
    229 O2    s      -0.000084     -0.000086      0.000332      0.000000
    230 O3    s       0.000046     -0.000059     -0.000173      0.000000
    231 O2    s       0.000035     -0.000005     -0.000387      0.000000
    232 O2    s      -0.000190      0.000038     -0.001152      0.000000
    233 O2    s      -0.000029      0.000158     -0.000517      0.000000
    234 O2    s       0.000014     -0.000103     -0.000018      0.000000
    235 O1    s       0.000029      0.000440     -0.000987      0.000000
    236 O1    s      -0.000451     -0.000069     -0.002493      0.000000
    237 O3    s      -0.000037     -0.000178     -0.001146      0.000000
    238 O1    s      -0.000002     -0.000060      0.000944      0.000000
    239 O1    s       0.001173     -0.000192      0.002529      0.000000
    240 O1    s       0.000308     -0.000167      0.000817      0.000000
    241 O1    s      -0.000067     -0.000123     -0.001555      0.000000
    242 O3    s       0.000078      0.000040      0.000188      0.000000
    243 O3    s      -0.000377     -0.000388      0.000314      0.000000
    244 O3    s       0.000092     -0.000139      0.000156      0.000000
    245 O3    s       0.000062      0.000061      0.000052      0.000000
    246 O3    s       0.000006      0.000080      0.000345      0.000000
[...]
    298 O3    s       0.000151     -0.000031     -0.000278      0.000000
    299 O1    s      -0.001189      0.000884     -0.003881      0.000000
    300 O3    s      -0.000005      0.000222     -0.000732      0.000000
    301 O1    s      -0.000076     -0.000138      0.000354      0.000000
    302 O1    s       0.000153      0.000257      0.001111      0.000000
    303 O1    s      -0.000223      0.000054     -0.000630      0.000000
    304 O1    s      -0.000080     -0.000266     -0.000092      0.000000
    305 O1    s       0.000350     -0.000189      0.001063      0.000000
    306 O1    s       0.000014      0.000070     -0.000233      0.000000
    307 F     s       0.000053     -0.000165      0.000394      0.000000
    308 F     s       0.000169      0.000356      0.001037      0.000000
    309 F     s       0.000064     -0.000036     -0.000196      0.000000
    310 F     s      -0.000055      0.000327     -0.000223      0.000000
    311 F     s       0.000287     -0.000832      0.003758      0.000000
    312 F     s       0.000172     -0.000143     -0.000074      0.000000
  Maximum abs         0.003463      0.001663      0.007065      0.000000

  Time to end of optimisation =      22.8840 seconds

  Timing analysis for GULP :

  Task / Subroutine                                          Time (Seconds)
  Calculation of reciprocal space energy and derivatives          0.4595
  Calculation of real space energy and derivatives               12.4436
  Calculation of three-body energy and derivatives                0.5397

  Dump file written as 26.1.res
  CIF file written as 26.1.cif

  Job Finished at 08:33.24  5th January    2017