  Job Started  at 13:50.10  5th January    2017

  Number of CPUs =     1

  Total number of configurations input =   1

*  Input for Configuration =   1                                               *

  Formula = Si57Ge3O120F6

  Number of irreducible atoms/shells =     312

  Total number atoms/shells =     312

  Dimensionality = 3               :  Bulk

  Charge on solid   =  -6.000000 =>neutralising background added

  Cartesian lattice vectors (Angstroms) :

       11.983480    0.000000    0.000000
       -5.977611   10.354652    0.000000
        0.104688    0.152306   29.513251

  Cell parameters (Angstroms/Degrees):

  a =      11.9835    alpha =  89.8455
  b =      11.9562    beta  =  89.7968
  c =      29.5138    gamma = 119.9973

  Initial cell volume =        3662.144725 Angs**3

  Temperature of configuration =  0.000     K

  Pressure of configuration =         0.000 GPa

  Fractional coordinates of asymmetric unit :

   No.  Atomic       x           y          z         Charge      Occupancy
        Label      (Frac)      (Frac)     (Frac)        (e)         (Frac)
      1 Si    c    0.699600    0.375700    0.033890     4.00000    1.000000
      2 Si    c    0.620199 *  0.324709 *  0.369125 *   4.00000    1.000000
      3 Si    c    0.678093 *  0.295169 *  0.697336 *   4.00000    1.000000
      4 Si    c    0.298851 *  0.625427 *  0.535626 *   4.00000    1.000000
      5 Si    c    0.378610 *  0.671717 *  0.872903 *   4.00000    1.000000
      6 Si    c    0.326434 *  0.702676 *  0.205939 *   4.00000    1.000000
      7 Si    c    0.381339 *  0.705535 *  0.306163 *   4.00000    1.000000
      8 Si    c    0.318352 *  0.617371 *  0.975472 *   4.00000    1.000000
      9 Si    c    0.304987 *  0.684385 *  0.636957 *   4.00000    1.000000
     10 Si    c    0.623546 *  0.295106 *  0.799426 *   4.00000    1.000000
     11 Si    c    0.675912 *  0.378145 *  0.469459 *   4.00000    1.000000
     12 Si    c    0.704050 *  0.323548 *  0.136470 *   4.00000    1.000000
     13 Ge    c    0.529189 *  0.428839 *  0.967952 *   4.00000    1.000000
     14 Si    c    0.584006 *  0.115917 *  0.303904 *   4.00000    1.000000
     15 Si    c    0.891837 *  0.472990 *  0.634339 *   4.00000    1.000000
     16 Si    c    0.470177 *  0.583548 *  0.471571 *   4.00000    1.000000
     17 Si    c    0.411516 *  0.873268 *  0.803893 *   4.00000    1.000000
     18 Si    c    0.125512 *  0.533043 *  0.139287 *   4.00000    1.000000
     19 Si    c    0.417964 *  0.531411 *  0.370288 *   4.00000    1.000000
     20 Ge    c    0.094470 *  0.566771 *  0.040579 *   4.00000    1.000000
     21 Ge    c    0.473307 *  0.901042 *  0.704505 *   4.00000    1.000000
     22 Si    c    0.591643 *  0.462776 *  0.868672 *   4.00000    1.000000
     23 Si    c    0.888393 *  0.419915 *  0.533497 *   4.00000    1.000000
     24 Si    c    0.531689 *  0.112061 *  0.202436 *   4.00000    1.000000
     25 Si    c    0.305293 *  0.391202 *  0.856975 *   4.00000    1.000000
     26 Si    c    0.603687 *  0.903232 *  0.189051 *   4.00000    1.000000
     27 Si    c    0.097372 *  0.700867 *  0.520136 *   4.00000    1.000000
     28 Si    c    0.697717 *  0.603558 *  0.354914 *   4.00000    1.000000
     29 Si    c    0.394289 *  0.094587 *  0.681060 *   4.00000    1.000000
     30 Si    c    0.902525 *  0.294104 *  0.017803 *   4.00000    1.000000
     31 Si    c    0.398208 *  0.301591 *  0.484832 *   4.00000    1.000000
     32 Si    c    0.909573 *  0.604307 *  0.151337 *   4.00000    1.000000
     33 Si    c    0.698377 *  0.088687 *  0.815429 *   4.00000    1.000000
     34 Si    c    0.604311 *  0.701159 *  0.989870 *   4.00000    1.000000
     35 Si    c    0.100292 *  0.402721 *  0.649180 *   4.00000    1.000000
     36 Si    c    0.303224 *  0.906707 *  0.318830 *   4.00000    1.000000
     37 Si    c    0.249293 *  0.331070 *  0.959271 *   4.00000    1.000000
     38 Si    c    0.661888 *  0.914208 *  0.289633 *   4.00000    1.000000
     39 Si    c    0.091842 *  0.752091 *  0.620729 *   4.00000    1.000000
     40 Si    c    0.748433 *  0.660315 *  0.455338 *   4.00000    1.000000
     41 Si    c    0.337949 *  0.080138 *  0.784264 *   4.00000    1.000000
     42 Si    c    0.919123 *  0.253243 *  0.120639 *   4.00000    1.000000
     43 Si    c    0.339650 *  0.252129 *  0.384428 *   4.00000    1.000000
     44 Si    c    0.912731 *  0.664322 *  0.049169 *   4.00000    1.000000
     45 Si    c    0.752722 *  0.082615 *  0.713283 *   4.00000    1.000000
     46 Si    c    0.664408 *  0.743180 *  0.887048 *   4.00000    1.000000
     47 Si    c    0.089569 *  0.343273 *  0.548966 *   4.00000    1.000000
     48 Si    c    0.253027 *  0.911363 *  0.218187 *   4.00000    1.000000
     49 Si    c    0.964603 *  0.113963 *  0.968567 *   4.00000    1.000000
     50 Si    c    0.879034 *  0.851305 *  0.303557 *   4.00000    1.000000
     51 Si    c    0.148294 *  0.031944 *  0.634391 *   4.00000    1.000000
     52 Si    c    0.027491 *  0.879383 *  0.469467 *   4.00000    1.000000
     53 Si    c    0.124874 *  0.148978 *  0.802568 *   4.00000    1.000000
     54 Si    c    0.851983 *  0.972815 *  0.138022 *   4.00000    1.000000
     55 Si    c    0.121094 *  0.973114 *  0.368640 *   4.00000    1.000000
     56 Si    c    0.847229 *  0.883079 *  0.036934 *   4.00000    1.000000
     57 Si    c    0.037864 *  0.158161 *  0.701224 *   4.00000    1.000000
     58 Si    c    0.879443 *  0.023746 *  0.867234 *   4.00000    1.000000
     59 Si    c    0.147545 *  0.122939 *  0.533856 *   4.00000    1.000000
     60 Si    c    0.973565 *  0.850164 *  0.202694 *   4.00000    1.000000
     61 O2    c    0.931387 *  0.994984 *  0.001309 *   0.87073    1.000000
[...]
    172 O2    c    0.445423 *  0.406872 *  0.849171 *   0.87073    1.000000
    173 O2    c    0.971142 *  0.562332 *  0.510589 *   0.87073    1.000000
    174 O2    c    0.591711 *  0.030099 *  0.179631 *   0.87073    1.000000
    175 O2    c    0.583889 *  0.167818 *  0.252814 *   0.87073    1.000000
    176 O2    c    0.834069 *  0.418141 *  0.584306 *   0.87073    1.000000
    177 O3    c    0.600766 *  0.407537 *  0.916307 *   1.33043    1.000000
    178 O3    c    0.403412 *  0.809610 *  0.756232 *   1.33043    1.000000
    179 O3    c    0.187953 *  0.589581 *  0.091271 *   1.33043    1.000000
    180 O2    c    0.417310 *  0.583476 *  0.420939 *   0.87073    1.000000
    181 F     c    0.453741 *  0.906401 *  0.253176 *   0.56000    1.000000
    182 F     c    0.089567 *  0.546886 *  0.584295 *   0.56000    1.000000
    183 F     c    0.475371 *  0.520081 *  0.930580 *   0.56000    1.000000
    184 F     c    0.528340 *  0.048110 *  0.741001 *   0.56000    1.000000
    185 F     c    0.949370 *  0.474211 *  0.077321 *   0.56000    1.000000
    186 F     c    0.546889 *  0.451549 *  0.419300 *   0.56000    1.000000
    187 O2    s    0.925617 *  0.995897 *  0.001599 *  -2.87073    1.000000
    188 O2    s    0.001595 *  0.927549 *  0.335267 *  -2.87073    1.000000
    189 O2    s    0.077285 *  0.077160 *  0.669125 *  -2.87073    1.000000
    190 O2    s    0.072642 *  0.002278 *  0.501101 *  -2.87073    1.000000
    191 O2    s    0.000398 *  0.068440 *  0.834025 *  -2.87073    1.000000
    192 O2    s    0.928346 *  0.925975 *  0.169825 *  -2.87073    1.000000
    193 O2    s    0.353596 *  0.590010 *  0.338684 *  -2.87073    1.000000
    194 O3    s    0.412818 *  0.764842 *  0.667922 *  -3.33043    1.000000
    195 O3    s    0.234492 *  0.643806 *  0.004235 *  -3.33043    1.000000
    196 O2    s    0.650552 *  0.410409 *  0.830764 *  -2.87073    1.000000
    197 O2    s    0.590173 *  0.233960 *  0.169276 *  -2.87073    1.000000
    198 O2    s    0.766420 *  0.353233 *  0.501462 *  -2.87073    1.000000
    199 O3    s    0.590463 *  0.351346 *  0.004116 *  -3.33043    1.000000
    200 O2    s    0.767752 *  0.412627 *  0.666624 *  -2.87073    1.000000
    201 O2    s    0.647690 *  0.237029 *  0.336001 *  -2.87073    1.000000
    202 O2    s    0.415270 *  0.650188 *  0.503433 *  -2.87073    1.000000
    203 O2    s    0.236660 *  0.583562 *  0.175659 *  -2.87073    1.000000
    204 O2    s    0.352411 *  0.761753 *  0.841371 *  -2.87073    1.000000
    205 O2    s    0.112629 *  0.212868 *  0.973661 *  -2.87073    1.000000
    206 O2    s    0.785493 *  0.908755 *  0.306560 *  -2.87073    1.000000
    207 O2    s    0.097527 *  0.882030 *  0.637984 *  -2.87073    1.000000
    208 O2    s    0.877192 *  0.783100 *  0.472826 *  -2.87073    1.000000
    209 O2    s    0.218754 *  0.091246 *  0.803178 *  -2.87073    1.000000
    210 O2    s    0.907132 *  0.123415 *  0.140460 *  -2.87073    1.000000
    211 O2    s    0.215966 *  0.124011 *  0.366670 *  -2.87073    1.000000
    212 O2    s    0.894012 *  0.781552 *  0.033742 *  -2.87073    1.000000
    213 O2    s    0.888105 *  0.101342 *  0.698204 *  -2.87073    1.000000
    214 O2    s    0.783724 *  0.872774 *  0.867015 *  -2.87073    1.000000
    215 O2    s    0.095214 *  0.220344 *  0.530703 *  -2.87073    1.000000
    216 O2    s    0.124265 *  0.905900 *  0.200534 *  -2.87073    1.000000
    217 O2    s    0.929356 *  0.859187 *  0.252781 *  -2.87073    1.000000
    218 O2    s    0.131238 *  0.069378 *  0.584347 *  -2.87073    1.000000
    219 O2    s    0.931157 *  0.066960 *  0.917143 *  -2.87073    1.000000
    220 O2    s    0.078889 *  0.149295 *  0.752248 *  -2.87073    1.000000
    221 O2    s    0.864261 *  0.937006 *  0.087155 *  -2.87073    1.000000
    222 O2    s    0.066430 *  0.929435 *  0.418586 *  -2.87073    1.000000
    223 O2    s    0.893499 *  0.186651 *  0.983692 *  -2.87073    1.000000
    224 O2    s    0.794956 *  0.706382 *  0.318879 *  -2.87073    1.000000
    225 O2    s    0.294273 *  0.101150 *  0.647683 *  -2.87073    1.000000
    226 O2    s    0.091718 *  0.798611 *  0.484410 *  -2.87073    1.000000
    227 O2    s    0.208278 *  0.291129 *  0.820831 *  -2.87073    1.000000
    228 O2    s    0.706826 *  0.908615 *  0.153362 *  -2.87073    1.000000
    229 O2    s    0.205927 *  0.912355 *  0.354304 *  -2.87073    1.000000
    230 O2    s    0.702819 *  0.810070 *  0.023159 *  -2.87073    1.000000
    231 O2    s    0.098794 *  0.301751 *  0.685468 *  -2.87073    1.000000
    232 O2    s    0.795568 *  0.084752 *  0.851146 *  -2.87073    1.000000
    233 O2    s    0.294156 *  0.203999 *  0.520297 *  -2.87073    1.000000
    234 O2    s    0.913476 *  0.705161 *  0.187327 *  -2.87073    1.000000
    235 O2    s    0.332532 *  0.659248 *  0.256188 *  -2.87073    1.000000
    236 O2    s    0.343969 *  0.677082 *  0.585106 *  -2.87073    1.000000
    237 O2    s    0.327970 *  0.660014 *  0.922476 *  -2.87073    1.000000
    238 O2    s    0.671920 *  0.333439 *  0.748905 *  -2.87073    1.000000
    239 O2    s    0.664026 *  0.331784 *  0.086519 *  -2.87073    1.000000
    240 O2    s    0.670581 *  0.328013 *  0.419137 *  -2.87073    1.000000
    241 O3    s    0.361848 *  0.321630 *  0.974985 *  -3.33043    1.000000
    242 O2    s    0.661868 *  0.040671 *  0.304693 *  -2.87073    1.000000
[...]
   197  O2    s     0.602017    0.240835    0.170202    0.000000
   198  O2    s     0.770983    0.354699    0.502097    0.000000
   199  O3    s     0.587583    0.346266    0.005414    0.000000
   200  O2    s     0.772561    0.409094    0.667719    0.000000
   201  O2    s     0.657615    0.239980    0.336660    0.000000
   202  O2    s     0.419110    0.650619    0.501774    0.000000
   203  O2    s     0.247529    0.590714    0.173194    0.000000
   204  O2    s     0.352501    0.747358    0.838790    0.000000
   205  O2    s     0.108142    0.206760    0.973724    0.000000
   206  O2    s     0.795149    0.911594    0.306243    0.000000
   207  O2    s     0.102866    0.879821    0.637716    0.000000
   208  O2    s     0.883397    0.785755    0.472136    0.000000
   209  O2    s     0.216467    0.076484    0.801577    0.000000
   210  O2    s     0.917848    0.128483    0.138363    0.000000
   211  O2    s     0.225060    0.126393    0.366106    0.000000
   212  O2    s     0.894404    0.779928    0.032272    0.000000
   213  O2    s     0.892746    0.097571    0.696968    0.000000
   214  O2    s     0.785373    0.860089    0.867710    0.000000
   215  O2    s     0.099310    0.219457    0.530481    0.000000
   216  O2    s     0.135658    0.913333    0.200257    0.000000
   217  O2    s     0.938252    0.863085    0.251714    0.000000
   218  O2    s     0.137116    0.067614    0.583511    0.000000
   219  O2    s     0.929948    0.061422    0.916148    0.000000
   220  O2    s     0.080087    0.141793    0.751754    0.000000
   221  O2    s     0.867006    0.935760    0.086295    0.000000
   222  O2    s     0.074003    0.930363    0.417767    0.000000
   223  O2    s     0.891004    0.184822    0.982050    0.000000
   224  O2    s     0.805162    0.709496    0.318223    0.000000
   225  O2    s     0.300087    0.097934    0.646555    0.000000
   226  O2    s     0.096269    0.798574    0.484146    0.000000
   227  O2    s     0.208597    0.277245    0.820984    0.000000
   228  O2    s     0.717377    0.915032    0.153255    0.000000
   229  O2    s     0.215783    0.915104    0.353977    0.000000
   230  O2    s     0.699476    0.801806    0.023724    0.000000
   231  O2    s     0.103420    0.298610    0.685375    0.000000
   232  O2    s     0.792690    0.069326    0.849909    0.000000
   233  O2    s     0.299907    0.206590    0.519814    0.000000
   234  O2    s     0.925764    0.712261    0.185728    0.000000
   235  O2    s     0.342281    0.664136    0.254497    0.000000
   236  O2    s     0.347635    0.674357    0.583767    0.000000
   237  O2    s     0.327897    0.649372    0.920416    0.000000
   238  O2    s     0.672669    0.323679    0.749543    0.000000
   239  O2    s     0.669964    0.335943    0.087145    0.000000
   240  O2    s     0.678366    0.331459    0.419450    0.000000
   241  O3    s     0.357200    0.312261    0.975591    0.000000
   242  O2    s     0.672187    0.044080    0.304960    0.000000
   243  O2    s     0.969433    0.623093    0.636756    0.000000
   244  O2    s     0.629171    0.662864    0.470817    0.000000
   245  O2    s     0.337379    0.942370    0.800185    0.000000
   246  O2    s     0.053159    0.382423    0.135178    0.000000
[...]
   298  O2    s     0.443568    0.395693    0.852804    0.000000
   299  O2    s     0.980094    0.562025    0.514250    0.000000
   300  O2    s     0.598472    0.032155    0.183241    0.000000
   301  O2    s     0.589336    0.161738    0.253510    0.000000
   302  O2    s     0.850281    0.422726    0.584983    0.000000
   303  O3    s     0.592694    0.402913    0.915736    0.000000
   304  O3    s     0.409457    0.811914    0.755353    0.000000
   305  O3    s     0.181658    0.585014    0.090260    0.000000
   306  O2    s     0.430702    0.580775    0.419259    0.000000
   307  F     s     0.465014    0.912303    0.252873    0.000000
   308  F     s     0.093275    0.544705    0.584131    0.000000
   309  F     s     0.476873    0.503028    0.933068    0.000000
   310  F     s     0.526573    0.028675    0.737444    0.000000
   311  F     s     0.965304    0.482940    0.073260    0.000000
   312  F     s     0.554847    0.454854    0.418619    0.000000

  Final Cartesian lattice vectors (Angstroms) :

       11.990855    0.001164    0.004564
       -5.980284   10.356980    0.002705
        0.116008    0.166558   29.499754

  Final cell parameters and derivatives :

       a           11.990856 Angstrom     dE/de1(xx)    -0.000179 eV/strain
       b           11.959550 Angstrom     dE/de2(yy)    -0.000680 eV/strain
       c           29.500452 Angstrom     dE/de3(zz)    -0.001161 eV/strain
       alpha       89.819564 Degrees      dE/de4(yz)     0.000394 eV/strain
       beta        89.752850 Degrees      dE/de5(xz)     0.000365 eV/strain
       gamma      119.997249 Degrees      dE/de6(xy)     0.000432 eV/strain

  Primitive cell volume =          3663.735953 Angs**3

  Density of cell =      1.746330 g/cm**3

  Non-primitive cell volume =          3663.735953 Angs**3

  Final internal derivatives :

   No.  Atomic          a             b             c           Radius
        Label          (eV)          (eV)          (eV)        (eV/Angs)
      1 Si    c       0.000000      0.000000      0.000000      0.000000
      2 Si    c      -0.000022      0.000116      0.000152      0.000000
      3 Si    c      -0.000208     -0.000167      0.000636      0.000000
      4 Si    c       0.000194     -0.000176     -0.000240      0.000000
      5 Si    c      -0.000082      0.000105      0.001092      0.000000
      6 Si    c       0.000010     -0.000303     -0.000202      0.000000
      7 Si    c      -0.000137      0.000269     -0.000554      0.000000
      8 Si    c       0.000971     -0.001216     -0.001789      0.000000
      9 Si    c      -0.000076     -0.000052      0.000080      0.000000
     10 Si    c       0.000020      0.000222     -0.000562      0.000000
     11 Si    c       0.000276     -0.000097      0.000440      0.000000
     12 Si    c       0.000233      0.000046     -0.002431      0.000000
     13 Ge    c      -0.002430      0.002207     -0.005335      0.000000
     14 Si    c       0.000021     -0.000023      0.000202      0.000000
     15 Si    c       0.000141      0.000065     -0.000192      0.000000
     16 Si    c      -0.000036      0.000136      0.000661      0.000000
     17 Si    c      -0.000004     -0.000149      0.000027      0.000000
     18 Si    c       0.000227     -0.000157      0.000850      0.000000
     19 Si    c      -0.000042     -0.000028     -0.000436      0.000000
     20 Ge    c      -0.001743     -0.000624      0.001513      0.000000
     21 Ge    c      -0.000030      0.000680      0.000976      0.000000
     22 Si    c       0.000506     -0.000266     -0.000214      0.000000
     23 Si    c      -0.000141     -0.000040     -0.000298      0.000000
     24 Si    c       0.000047      0.000026      0.000072      0.000000
     25 Si    c      -0.000189      0.000273      0.001827      0.000000
     26 Si    c       0.000136     -0.000104      0.000339      0.000000
     27 Si    c      -0.000049     -0.000040     -0.000036      0.000000
     28 Si    c       0.000010     -0.000095     -0.000101      0.000000
     29 Si    c       0.000163     -0.000174      0.000839      0.000000
     30 Si    c       0.000374      0.000336      0.002711      0.000000
     31 Si    c      -0.000061      0.000079      0.000062      0.000000
     32 Si    c      -0.000363      0.000120     -0.001348      0.000000
     33 Si    c       0.000113     -0.000134     -0.000492      0.000000
     34 Si    c       0.000311     -0.000643     -0.000719      0.000000
     35 Si    c       0.000024      0.000098     -0.000153      0.000000
     36 Si    c      -0.000021     -0.000060     -0.000256      0.000000
     37 Si    c      -0.000091      0.000483     -0.000429      0.000000
     38 Si    c      -0.000126      0.000002     -0.000360      0.000000
     39 Si    c      -0.000009     -0.000056      0.000194      0.000000
     40 Si    c      -0.000003     -0.000058      0.000078      0.000000
     41 Si    c      -0.000050     -0.000034     -0.000558      0.000000
     42 Si    c       0.000249      0.000058     -0.000774      0.000000
     43 Si    c      -0.000010      0.000028     -0.000124      0.000000
     44 Si    c      -0.000190     -0.000707     -0.000098      0.000000
     45 Si    c      -0.000465      0.000318      0.000844      0.000000
     46 Si    c       0.000119     -0.000400      0.000410      0.000000
     47 Si    c       0.000008      0.000051     -0.000044      0.000000
     48 Si    c      -0.000038      0.000085      0.000373      0.000000
     49 Si    c      -0.000896      0.000735     -0.004965      0.000000
     50 Si    c       0.000024     -0.000141      0.000002      0.000000
     51 Si    c       0.000000     -0.000073      0.000102      0.000000
     52 Si    c      -0.000095     -0.000071      0.000404      0.000000
     53 Si    c      -0.000120     -0.000182      0.000231      0.000000
     54 Si    c       0.000701      0.000398     -0.000317      0.000000
     55 Si    c       0.000067      0.000064      0.000034      0.000000
     56 Si    c      -0.000299     -0.001142      0.003600      0.000000
     57 Si    c       0.000541     -0.000386      0.000413      0.000000
     58 Si    c      -0.000028      0.000084     -0.002997      0.000000
     59 Si    c      -0.000108      0.000092     -0.000358      0.000000
     60 Si    c      -0.000142     -0.000116     -0.000809      0.000000
[...]
    172 O2    c      -0.000480      0.000281     -0.000304      0.000000
    173 O2    c       0.000087      0.000005      0.000278      0.000000
    174 O2    c      -0.000091      0.000050      0.000062      0.000000
    175 O2    c      -0.000022      0.000031     -0.000188      0.000000
    176 O2    c       0.000001      0.000020     -0.000044      0.000000
    177 O3    c       0.000258     -0.000111     -0.000947      0.000000
    178 O3    c      -0.000052     -0.000094     -0.000894      0.000000
    179 O3    c       0.000409     -0.000204      0.000304      0.000000
    180 O2    c      -0.000031      0.000026      0.000030      0.000000
    181 F     c      -0.000052     -0.000092      0.000084      0.000000
    182 F     c      -0.000014     -0.000008     -0.000034      0.000000
    183 F     c       0.000270     -0.000237      0.001985      0.000000
    184 F     c       0.000030     -0.000022     -0.000646      0.000000
    185 F     c       0.000040     -0.000108     -0.001276      0.000000
    186 F     c       0.000026     -0.000045     -0.000138      0.000000
    187 O2    s       0.000166      0.000253     -0.000772      0.000000
    188 O2    s      -0.000040     -0.000006      0.000114      0.000000
    189 O2    s       0.000185     -0.000158      0.000020      0.000000
    190 O2    s       0.000072     -0.000105     -0.000193      0.000000
    191 O2    s       0.000237      0.000025     -0.000878      0.000000
    192 O2    s       0.000203      0.000240     -0.000966      0.000000
    193 O2    s      -0.000078     -0.000047      0.000024      0.000000
    194 O3    s       0.000120     -0.000134      0.001235      0.000000
    195 O3    s       0.000173     -0.000552     -0.000562      0.000000
    196 O2    s      -0.000412      0.000307      0.000543      0.000000
    197 O2    s       0.000181     -0.000271     -0.000064      0.000000
    198 O2    s       0.000115     -0.000124      0.000087      0.000000
    199 O3    s      -0.000011      0.000640     -0.001404      0.000000
    200 O2    s      -0.000107      0.000105      0.000096      0.000000
    201 O2    s       0.000023      0.000007     -0.000178      0.000000
    202 O2    s       0.000085     -0.000007     -0.000101      0.000000
    203 O2    s      -0.000227      0.000030     -0.000608      0.000000
    204 O2    s       0.000090      0.000172     -0.000149      0.000000
    205 O2    s       0.000221      0.000075     -0.000974      0.000000
    206 O2    s      -0.000038      0.000003     -0.000054      0.000000
    207 O2    s      -0.000021     -0.000064     -0.000108      0.000000
    208 O2    s      -0.000008     -0.000026      0.000033      0.000000
    209 O2    s      -0.000040     -0.000090     -0.000205      0.000000
    210 O2    s       0.000473     -0.000501      0.000294      0.000000
    211 O2    s       0.000035      0.000062      0.000098      0.000000
    212 O2    s       0.000647     -0.000739      0.001050      0.000000
    213 O2    s      -0.000039      0.000096      0.000048      0.000000
    214 O2    s       0.000156     -0.000383     -0.000046      0.000000
    215 O2    s       0.000013      0.000001     -0.000077      0.000000
    216 O2    s       0.000085      0.000075      0.000057      0.000000
    217 O2    s      -0.000000     -0.000088     -0.000014      0.000000
    218 O2    s      -0.000005      0.000088     -0.000393      0.000000
    219 O2    s      -0.000345     -0.000241     -0.002431      0.000000
    220 O2    s       0.000152     -0.000138     -0.000281      0.000000
    221 O2    s       0.001054     -0.000023      0.002057      0.000000
    222 O2    s      -0.000057     -0.000005      0.000199      0.000000
    223 O2    s      -0.000721      0.000410      0.000498      0.000000
    224 O2    s      -0.000001     -0.000063      0.000120      0.000000
    225 O2    s       0.000020      0.000135      0.000275      0.000000
    226 O2    s      -0.000085      0.000005      0.000070      0.000000
    227 O2    s       0.000055      0.000347      0.001288      0.000000
    228 O2    s      -0.000361      0.000427      0.001226      0.000000
    229 O2    s       0.000057     -0.000018     -0.000067      0.000000
    230 O2    s      -0.001045     -0.000276     -0.001205      0.000000
    231 O2    s      -0.000012     -0.000092      0.000154      0.000000
    232 O2    s      -0.000491      0.000483     -0.001256      0.000000
    233 O2    s      -0.000139      0.000102      0.000124      0.000000
    234 O2    s      -0.000077     -0.000260     -0.000800      0.000000
    235 O2    s      -0.000052     -0.000022     -0.000498      0.000000
    236 O2    s       0.000009      0.000038     -0.000329      0.000000
    237 O2    s      -0.000060      0.000267     -0.000444      0.000000
    238 O2    s      -0.000055      0.000122      0.000921      0.000000
    239 O2    s      -0.000364     -0.000166     -0.000410      0.000000
    240 O2    s       0.000092     -0.000029      0.000086      0.000000
    241 O3    s       0.000382     -0.000427     -0.000351      0.000000
    242 O2    s      -0.000056      0.000081     -0.000063      0.000000
    243 O2    s      -0.000047      0.000042      0.000003      0.000000
    244 O2    s      -0.000025      0.000036     -0.000019      0.000000
    245 O2    s       0.000082     -0.000089     -0.000155      0.000000
    246 O2    s       0.000234      0.000202     -0.000078      0.000000
[...]
    298 O2    s      -0.000097      0.000253      0.001419      0.000000
    299 O2    s      -0.000051      0.000026     -0.000317      0.000000
    300 O2    s       0.000012      0.000073     -0.000005      0.000000
    301 O2    s       0.000024     -0.000167      0.000199      0.000000
    302 O2    s       0.000038     -0.000041     -0.000101      0.000000
    303 O3    s      -0.001047      0.000918      0.000562      0.000000
    304 O3    s       0.000026      0.000571      0.000333      0.000000
    305 O3    s      -0.000845      0.000261      0.000032      0.000000
    306 O2    s       0.000066     -0.000104     -0.000149      0.000000
    307 F     s       0.000080      0.000223     -0.000225      0.000000
    308 F     s       0.000008     -0.000008      0.000009      0.000000
    309 F     s       0.001161     -0.001626      0.000459      0.000000
    310 F     s      -0.000013     -0.000590     -0.000454      0.000000
    311 F     s       0.001035      0.000408     -0.000504      0.000000
    312 F     s      -0.000079      0.000102      0.000227      0.000000
  Maximum abs         0.002599      0.002207      0.007593      0.000000

  Time to end of optimisation =      14.0574 seconds

  Timing analysis for GULP :

  Task / Subroutine                                          Time (Seconds)
  Calculation of reciprocal space energy and derivatives          0.3454
  Calculation of real space energy and derivatives                7.5533
  Calculation of three-body energy and derivatives                0.9350

  Dump file written as 3.3.res
  CIF file written as 3.3.cif

  Job Finished at 13:50.24  5th January    2017