  Job Started  at 00:43.23  6th January    2017

  Number of CPUs =     1

  Total number of configurations input =   1

*  Input for Configuration =   1                                               *

  Formula = Ge55Si5O120F6

  Number of irreducible atoms/shells =     312

  Total number atoms/shells =     312

  Dimensionality = 3               :  Bulk

  Charge on solid   =  -6.000000 =>neutralising background added

  Cartesian lattice vectors (Angstroms) :

       12.545911    0.000000    0.000000
       -6.364117   10.846899    0.000000
       -0.151043   -0.055382   30.775411

  Cell parameters (Angstroms/Degrees):

  a =      12.5459    alpha =  89.9466
  b =      12.5761    beta  =  90.2812
  c =      30.7758    gamma = 120.4011

  Initial cell volume =        4188.048069 Angs**3

  Temperature of configuration =  0.000     K

  Pressure of configuration =         0.000 GPa

  Fractional coordinates of asymmetric unit :

   No.  Atomic       x           y          z         Charge      Occupancy
        Label      (Frac)      (Frac)     (Frac)        (e)         (Frac)
      1 Ge    c    0.699600    0.375700    0.033890     4.00000    1.000000
      2 Ge    c    0.626550 *  0.318862 *  0.366065 *   4.00000    1.000000
      3 Ge    c    0.678454 *  0.300361 *  0.702677 *   4.00000    1.000000
      4 Ge    c    0.306138 *  0.624135 *  0.533052 *   4.00000    1.000000
      5 Ge    c    0.375938 *  0.682030 *  0.866803 *   4.00000    1.000000
      6 Ge    c    0.327807 *  0.705067 *  0.200189 *   4.00000    1.000000
      7 Ge    c    0.379770 *  0.693403 *  0.299899 *   4.00000    1.000000
      8 Ge    c    0.318651 *  0.626906 *  0.966601 *   4.00000    1.000000
      9 Ge    c    0.299743 *  0.672228 *  0.633130 *   4.00000    1.000000
     10 Ge    c    0.625546 *  0.303731 *  0.803218 *   4.00000    1.000000
     11 Ge    c    0.683664 *  0.375952 *  0.466865 *   4.00000    1.000000
     12 Ge    c    0.698687 *  0.319098 *  0.132995 *   4.00000    1.000000
     13 Ge    c    0.525814 *  0.416505 *  0.969856 *   4.00000    1.000000
     14 Ge    c    0.592838 *  0.106542 *  0.302239 *   4.00000    1.000000
     15 Ge    c    0.890405 *  0.465511 *  0.636043 *   4.00000    1.000000
     16 Ge    c    0.477208 *  0.582780 *  0.467945 *   4.00000    1.000000
     17 Ge    c    0.406767 *  0.888877 *  0.800821 *   4.00000    1.000000
     18 Ge    c    0.112771 *  0.534378 *  0.134244 *   4.00000    1.000000
     19 Ge    c    0.418711 *  0.521629 *  0.365222 *   4.00000    1.000000
     20 Ge    c    0.111997 *  0.595057 *  0.031680 *   4.00000    1.000000
     21 Ge    c    0.466023 *  0.888960 *  0.698092 *   4.00000    1.000000
     22 Ge    c    0.582968 *  0.476401 *  0.866676 *   4.00000    1.000000
     23 Ge    c    0.891187 *  0.410014 *  0.533608 *   4.00000    1.000000
     24 Ge    c    0.532950 *  0.108857 *  0.200512 *   4.00000    1.000000
     25 Ge    c    0.297406 *  0.404115 *  0.850945 *   4.00000    1.000000
     26 Ge    c    0.608198 *  0.901784 *  0.184499 *   4.00000    1.000000
     27 Ge    c    0.101895 *  0.698048 *  0.519070 *   4.00000    1.000000
     28 Ge    c    0.703942 *  0.597410 *  0.349262 *   4.00000    1.000000
     29 Ge    c    0.398792 *  0.105218 *  0.686090 *   4.00000    1.000000
     30 Ge    c    0.903621 *  0.310545 *  0.014266 *   4.00000    1.000000
     31 Ge    c    0.403985 *  0.297474 *  0.483223 *   4.00000    1.000000
     32 Ge    c    0.896328 *  0.603485 *  0.147577 *   4.00000    1.000000
     33 Ge    c    0.696614 *  0.097365 *  0.818533 *   4.00000    1.000000
     34 Ge    c    0.595397 *  0.700580 *  0.984796 *   4.00000    1.000000
     35 Ge    c    0.104199 *  0.392342 *  0.649109 *   4.00000    1.000000
     36 Ge    c    0.307156 *  0.896395 *  0.315874 *   4.00000    1.000000
     37 Ge    c    0.244943 *  0.343684 *  0.952463 *   4.00000    1.000000
     38 Ge    c    0.665652 *  0.900019 *  0.285775 *   4.00000    1.000000
     39 Ge    c    0.096146 *  0.751398 *  0.621140 *   4.00000    1.000000
     40 Ge    c    0.760463 *  0.660458 *  0.451477 *   4.00000    1.000000
     41 Ge    c    0.336930 *  0.098025 *  0.787540 *   4.00000    1.000000
     42 Ge    c    0.908783 *  0.248387 *  0.115528 *   4.00000    1.000000
     43 Ge    c    0.342430 *  0.241144 *  0.381457 *   4.00000    1.000000
     44 Ge    c    0.901290 *  0.662596 *  0.046143 *   4.00000    1.000000
     45 Ge    c    0.751719 *  0.091662 *  0.716698 *   4.00000    1.000000
     46 Ge    c    0.659995 *  0.758084 *  0.883418 *   4.00000    1.000000
     47 Ge    c    0.100143 *  0.337332 *  0.547091 *   4.00000    1.000000
     48 Ge    c    0.248689 *  0.906171 *  0.215141 *   4.00000    1.000000
     49 Ge    c    0.964701 *  0.126317 *  0.965789 *   4.00000    1.000000
     50 Si    c    0.881110 *  0.841565 *  0.300740 *   4.00000    1.000000
     51 Ge    c    0.146648 *  0.028638 *  0.635663 *   4.00000    1.000000
     52 Si    c    0.035172 *  0.872636 *  0.467062 *   4.00000    1.000000
     53 Ge    c    0.114686 *  0.155346 *  0.800472 *   4.00000    1.000000
     54 Si    c    0.854465 *  0.975605 *  0.134489 *   4.00000    1.000000
     55 Ge    c    0.122941 *  0.958688 *  0.366707 *   4.00000    1.000000
     56 Ge    c    0.842466 *  0.881712 *  0.035144 *   4.00000    1.000000
     57 Si    c    0.025328 *  0.146229 *  0.700063 *   4.00000    1.000000
     58 Si    c    0.875031 *  0.030723 *  0.866843 *   4.00000    1.000000
     59 Ge    c    0.154864 *  0.114731 *  0.532668 *   4.00000    1.000000
     60 Ge    c    0.968598 *  0.852365 *  0.200267 *   4.00000    1.000000
     61 O1    c    0.899434 *  0.007927 *  0.002290 *   1.73396    1.000000
[...]
    172 O1    c    0.435896 *  0.409909 *  0.845161 *   1.73396    1.000000
    173 O1    c    0.987465 *  0.549710 *  0.509068 *   1.73396    1.000000
    174 O1    c    0.615047 *  0.040624 *  0.183435 *   1.73396    1.000000
    175 O1    c    0.568975 *  0.158951 *  0.253531 *   1.73396    1.000000
    176 O1    c    0.838048 *  0.423658 *  0.583308 *   1.73396    1.000000
    177 O1    c    0.588920 *  0.432405 *  0.919036 *   1.73396    1.000000
    178 O1    c    0.402457 *  0.837823 *  0.748767 *   1.73396    1.000000
    179 O1    c    0.161741 *  0.574758 *  0.081416 *   1.73396    1.000000
    180 O1    c    0.414495 *  0.570145 *  0.417062 *   1.73396    1.000000
    181 F     c    0.445225 *  0.888365 *  0.246735 *   0.56000    1.000000
    182 F     c    0.121073 *  0.558047 *  0.586825 *   0.56000    1.000000
    183 F     c    0.439770 *  0.558916 *  0.915864 *   0.56000    1.000000
    184 F     c    0.546898 *  0.110644 *  0.750390 *   0.56000    1.000000
    185 F     c    0.880303 *  0.445819 *  0.079748 *   0.56000    1.000000
    186 F     c    0.552296 *  0.437849 *  0.414030 *   0.56000    1.000000
    187 O1    s    0.900089 *  0.007190 *  0.002032 *  -3.73396    1.000000
    188 O3    s    0.991166 *  0.898563 *  0.334572 *  -3.33043    1.000000
    189 O3    s    0.065463 *  0.077287 *  0.667056 *  -3.33043    1.000000
    190 O3    s    0.090448 *  0.989759 *  0.497266 *  -3.33043    1.000000
    191 O3    s    0.984477 *  0.082761 *  0.833180 *  -3.33043    1.000000
    192 O3    s    0.919230 *  0.934662 *  0.169550 *  -3.33043    1.000000
    193 O1    s    0.346754 *  0.573059 *  0.332543 *  -3.73396    1.000000
    194 O1    s    0.421690 *  0.768026 *  0.666037 *  -3.73396    1.000000
    195 O1    s    0.234248 *  0.664422 *  0.999541 *  -3.73396    1.000000
    196 O1    s    0.656652 *  0.425472 *  0.835309 *  -3.73396    1.000000
    197 O1    s    0.583292 *  0.231681 *  0.167943 *  -3.73396    1.000000
    198 O1    s    0.770639 *  0.341445 *  0.499801 *  -3.73396    1.000000
    199 O1    s    0.575188 *  0.344320 *  0.001366 *  -3.73396    1.000000
    200 O1    s    0.770886 *  0.419291 *  0.668976 *  -3.73396    1.000000
    201 O1    s    0.661812 *  0.228766 *  0.334924 *  -3.73396    1.000000
    202 O1    s    0.426924 *  0.655038 *  0.499953 *  -3.73396    1.000000
    203 O1    s    0.234788 *  0.583702 *  0.166362 *  -3.73396    1.000000
    204 O1    s    0.339707 *  0.766671 *  0.833333 *  -3.73396    1.000000
    205 O1    s    0.117183 *  0.215774 *  0.972351 *  -3.73396    1.000000
    206 O3    s    0.792957 *  0.895461 *  0.305438 *  -3.33043    1.000000
    207 O1    s    0.096478 *  0.877375 *  0.641897 *  -3.73396    1.000000
    208 O3    s    0.891972 *  0.788086 *  0.471486 *  -3.33043    1.000000
    209 O1    s    0.211635 *  0.101664 *  0.807737 *  -3.73396    1.000000
    210 O3    s    0.908856 *  0.118177 *  0.134810 *  -3.33043    1.000000
    211 O1    s    0.214291 *  0.111326 *  0.361745 *  -3.73396    1.000000
    212 O1    s    0.901919 *  0.790582 *  0.026631 *  -3.73396    1.000000
    213 O3    s    0.883407 *  0.095322 *  0.697203 *  -3.33043    1.000000
    214 O3    s    0.789466 *  0.888848 *  0.863443 *  -3.33043    1.000000
    215 O1    s    0.100567 *  0.212479 *  0.526003 *  -3.73396    1.000000
    216 O1    s    0.120922 *  0.906898 *  0.195339 *  -3.73396    1.000000
    217 O3    s    0.939226 *  0.868964 *  0.254275 *  -3.33043    1.000000
    218 O1    s    0.122147 *  0.053316 *  0.582763 *  -3.73396    1.000000
    219 O3    s    0.931399 *  0.064417 *  0.914039 *  -3.33043    1.000000
    220 O3    s    0.062029 *  0.128471 *  0.747132 *  -3.33043    1.000000
    221 O3    s    0.873170 *  0.934949 *  0.088419 *  -3.33043    1.000000
    222 O3    s    0.067860 *  0.921029 *  0.419246 *  -3.33043    1.000000
    223 O1    s    0.910828 *  0.221651 *  0.974264 *  -3.73396    1.000000
    224 O3    s    0.798115 *  0.701806 *  0.309974 *  -3.33043    1.000000
    225 O1    s    0.295805 *  0.101481 *  0.647696 *  -3.73396    1.000000
    226 O3    s    0.087900 *  0.788006 *  0.479149 *  -3.33043    1.000000
    227 O1    s    0.198749 *  0.303877 *  0.811979 *  -3.73396    1.000000
    228 O3    s    0.715177 *  0.915041 *  0.145704 *  -3.33043    1.000000
    229 O1    s    0.213580 *  0.901289 *  0.355133 *  -3.73396    1.000000
    230 O1    s    0.692254 *  0.791676 *  0.025156 *  -3.73396    1.000000
    231 O3    s    0.090573 *  0.285147 *  0.687714 *  -3.33043    1.000000
    232 O3    s    0.789538 *  0.084405 *  0.857720 *  -3.33043    1.000000
    233 O1    s    0.305767 *  0.204058 *  0.522648 *  -3.73396    1.000000
    234 O1    s    0.899320 *  0.704978 *  0.186016 *  -3.73396    1.000000
    235 O1    s    0.343263 *  0.647740 *  0.247862 *  -3.73396    1.000000
    236 O1    s    0.357370 *  0.666788 *  0.584090 *  -3.73396    1.000000
    237 O1    s    0.312491 *  0.672103 *  0.915840 *  -3.73396    1.000000
    238 O1    s    0.683799 *  0.354017 *  0.753185 *  -3.73396    1.000000
    239 O1    s    0.643515 *  0.328841 *  0.084260 *  -3.73396    1.000000
    240 O1    s    0.688289 *  0.330777 *  0.415887 *  -3.73396    1.000000
    241 O1    s    0.369053 *  0.334273 *  0.965278 *  -3.73396    1.000000
    242 O1    s    0.678392 *  0.037616 *  0.295683 *  -3.73396    1.000000
[...]
   198  O1    s     0.767501    0.321315    0.500130    0.000000
   199  O1    s     0.573594    0.350889    0.000869    0.000000
   200  O1    s     0.793345    0.413384    0.667568    0.000000
   201  O1    s     0.639028    0.199764    0.333829    0.000000
   202  O1    s     0.419581    0.625142    0.495063    0.000000
   203  O1    s     0.223813    0.575627    0.161033    0.000000
   204  O1    s     0.369284    0.768615    0.827053    0.000000
   205  O1    s     0.127833    0.226750    0.967211    0.000000
   206  O3    s     0.768662    0.873831    0.301902    0.000000
   207  O1    s     0.114189    0.860282    0.636845    0.000000
   208  O3    s     0.876700    0.756319    0.465886    0.000000
   209  O1    s     0.231196    0.087296    0.796605    0.000000
   210  O3    s     0.898676    0.113126    0.130984    0.000000
   211  O1    s     0.199612    0.080121    0.354558    0.000000
   212  O1    s     0.892595    0.784532    0.021260    0.000000
   213  O3    s     0.916442    0.101550    0.685473    0.000000
   214  O3    s     0.807154    0.893487    0.856818    0.000000
   215  O1    s     0.099487    0.188131    0.519544    0.000000
   216  O1    s     0.102609    0.892592    0.190542    0.000000
   217  O3    s     0.926175    0.855821    0.252634    0.000000
   218  O1    s     0.126242    0.046121    0.582832    0.000000
   219  O3    s     0.935906    0.056753    0.912661    0.000000
   220  O3    s     0.065683    0.126588    0.745969    0.000000
   221  O3    s     0.868242    0.926318    0.086407    0.000000
   222  O3    s     0.059506    0.912019    0.418719    0.000000
   223  O1    s     0.903760    0.208567    0.971133    0.000000
   224  O3    s     0.784022    0.682888    0.305162    0.000000
   225  O1    s     0.317122    0.083071    0.637969    0.000000
   226  O3    s     0.083028    0.771160    0.473807    0.000000
   227  O1    s     0.224143    0.296204    0.806312    0.000000
   228  O3    s     0.705037    0.909777    0.140768    0.000000
   229  O1    s     0.171778    0.856978    0.349645    0.000000
   230  O1    s     0.698039    0.815886    0.017261    0.000000
   231  O3    s     0.129200    0.277645    0.680363    0.000000
   232  O3    s     0.834270    0.102776    0.847315    0.000000
   233  O1    s     0.294473    0.159943    0.514754    0.000000
   234  O1    s     0.879792    0.696107    0.181806    0.000000
   235  O1    s     0.324976    0.620785    0.243053    0.000000
   236  O1    s     0.372285    0.674218    0.576628    0.000000
   237  O1    s     0.312779    0.669471    0.909359    0.000000
   238  O1    s     0.708796    0.358252    0.749840    0.000000
   239  O1    s     0.628735    0.321584    0.083526    0.000000
   240  O1    s     0.691348    0.310688    0.412756    0.000000
   241  O1    s     0.384127    0.349393    0.956596    0.000000
   242  O1    s     0.645933    0.010561    0.291758    0.000000
   243  O1    s     0.982051    0.604424    0.624570    0.000000
   244  O1    s     0.616819    0.631254    0.454349    0.000000
   245  O1    s     0.386975    0.985754    0.802317    0.000000
   246  O1    s     0.004643    0.372874    0.136291    0.000000
[...]
   298  O1    s     0.450329    0.405091    0.848623    0.000000
   299  O1    s     0.972762    0.544140    0.514095    0.000000
   300  O1    s     0.591117    0.021021    0.183437    0.000000
   301  O1    s     0.526525    0.119778    0.253062    0.000000
   302  O1    s     0.867119    0.380933    0.584527    0.000000
   303  O1    s     0.612459    0.463986    0.918982    0.000000
   304  O1    s     0.435778    0.854246    0.741590    0.000000
   305  O1    s     0.136279    0.553551    0.076010    0.000000
   306  O1    s     0.391928    0.512106    0.413972    0.000000
   307  F     s     0.410691    0.840577    0.236311    0.000000
   308  F     s     0.153135    0.542413    0.567935    0.000000
   309  F     s     0.445140    0.580406    0.903504    0.000000
   310  F     s     0.603909    0.141492    0.734539    0.000000
   311  F     s     0.847442    0.435184    0.068988    0.000000
   312  F     s     0.553395    0.389203    0.400369    0.000000

  Final Cartesian lattice vectors (Angstroms) :

       12.496882    0.037343    0.034862
       -6.306960   10.838025   -0.011457
       -0.065100   -0.038214   30.521830

  Final cell parameters and derivatives :

       a           12.496986 Angstrom     dE/de1(xx)    -0.000582 eV/strain
       b           12.539564 Angstrom     dE/de2(yy)    -0.000718 eV/strain
       c           30.521923 Angstrom     dE/de3(zz)    -0.000564 eV/strain
       alpha       90.052885 Degrees      dE/de4(yz)     0.000065 eV/strain
       beta        89.962585 Degrees      dE/de5(xz)     0.000005 eV/strain
       gamma      120.025176 Degrees      dE/de6(xy)    -0.000054 eV/strain

  Primitive cell volume =          4141.139250 Angs**3

  Density of cell =      2.473321 g/cm**3

  Non-primitive cell volume =          4141.139250 Angs**3

  Final internal derivatives :

   No.  Atomic          a             b             c           Radius
        Label          (eV)          (eV)          (eV)        (eV/Angs)
      1 Ge    c       0.000000      0.000000      0.000000      0.000000
      2 Ge    c       0.000007     -0.000009      0.000010      0.000000
      3 Ge    c       0.000065     -0.000069      0.000007      0.000000
      4 Ge    c       0.000156      0.000473      0.000408      0.000000
      5 Ge    c      -0.000053      0.000053      0.000030      0.000000
      6 Ge    c       0.000001      0.000004     -0.000001      0.000000
      7 Ge    c      -0.000003      0.000006     -0.000007      0.000000
      8 Ge    c      -0.000002      0.000009     -0.000060      0.000000
      9 Ge    c      -0.000319      0.000153     -0.000631      0.000000
     10 Ge    c       0.000018     -0.000017      0.000029      0.000000
     11 Ge    c      -0.000026     -0.000029     -0.000030      0.000000
     12 Ge    c      -0.000007      0.000005     -0.000027      0.000000
     13 Ge    c      -0.000007      0.000007     -0.000007      0.000000
     14 Ge    c       0.000001     -0.000006     -0.000006      0.000000
     15 Ge    c       0.000523      0.000382      0.000455      0.000000
     16 Ge    c       0.000167     -0.000118      0.000090      0.000000
     17 Ge    c      -0.000024      0.000006      0.000021      0.000000
     18 Ge    c      -0.000002      0.000001     -0.000027      0.000000
     19 Ge    c       0.000019     -0.000008     -0.000019      0.000000
     20 Ge    c      -0.000001      0.000000      0.000001      0.000000
     21 Ge    c      -0.000007      0.000118     -0.000124      0.000000
     22 Ge    c       0.000028     -0.000024     -0.000017      0.000000
     23 Ge    c      -0.001593      0.000796      0.002557      0.000000
     24 Ge    c       0.000003     -0.000003     -0.000001      0.000000
     25 Ge    c      -0.000011     -0.000011     -0.000019      0.000000
     26 Ge    c       0.000001      0.000004      0.000002      0.000000
     27 Ge    c       0.000393      0.000461      0.000088      0.000000
     28 Ge    c      -0.000002      0.000021     -0.000007      0.000000
     29 Ge    c       0.000074     -0.000059     -0.000213      0.000000
     30 Ge    c       0.000003      0.000003      0.000010      0.000000
     31 Ge    c       0.000017     -0.000003     -0.000029      0.000000
     32 Ge    c      -0.000002      0.000002     -0.000016      0.000000
     33 Ge    c      -0.000032      0.000031     -0.000058      0.000000
     34 Ge    c      -0.000005     -0.000005     -0.000009      0.000000
     35 Ge    c      -0.000587      0.000875      0.001600      0.000000
     36 Ge    c       0.000002      0.000003      0.000003      0.000000
     37 Ge    c       0.000005     -0.000003     -0.000010      0.000000
     38 Ge    c       0.000002      0.000001      0.000002      0.000000
     39 Ge    c       0.000225     -0.000802     -0.000853      0.000000
     40 Ge    c       0.000002      0.000013     -0.000009      0.000000
     41 Ge    c      -0.000000      0.000000     -0.000005      0.000000
     42 Ge    c      -0.000005      0.000010     -0.000018      0.000000
     43 Ge    c       0.000002     -0.000019     -0.000010      0.000000
     44 Ge    c      -0.000001     -0.000007      0.000018      0.000000
     45 Ge    c      -0.000034      0.000139     -0.000102      0.000000
     46 Ge    c      -0.000003      0.000003     -0.000000      0.000000
     47 Ge    c       0.000884     -0.000821     -0.000428      0.000000
     48 Ge    c       0.000001     -0.000005     -0.000009      0.000000
     49 Ge    c      -0.000015     -0.000004     -0.000020      0.000000
     50 Si    c       0.000024     -0.000005      0.000094      0.000000
     51 Ge    c       0.000002      0.000075      0.000036      0.000000
     52 Si    c      -0.000079      0.000061     -0.000158      0.000000
     53 Ge    c      -0.000006      0.000003     -0.000033      0.000000
     54 Si    c      -0.000000     -0.000006     -0.000016      0.000000
     55 Ge    c      -0.000032      0.000010      0.000120      0.000000
     56 Ge    c      -0.000001      0.000011      0.000012      0.000000
     57 Si    c       0.000129     -0.000147     -0.000005      0.000000
     58 Si    c       0.000009     -0.000011     -0.000011      0.000000
     59 Ge    c      -0.000071      0.000059      0.000202      0.000000
     60 Ge    c       0.000004      0.000004      0.000004      0.000000
[...]
    172 O1    c      -0.000011      0.000009      0.000015      0.000000
    173 O1    c       0.000018      0.000006     -0.000953      0.000000
    174 O1    c      -0.000003     -0.000003      0.000002      0.000000
    175 O1    c      -0.000000      0.000001     -0.000004      0.000000
    176 O1    c       0.001342     -0.001389     -0.002837      0.000000
    177 O1    c      -0.000006      0.000004     -0.000039      0.000000
    178 O1    c      -0.000005      0.000001      0.000163      0.000000
    179 O1    c      -0.000007      0.000001      0.000035      0.000000
    180 O1    c       0.000057     -0.000013     -0.000125      0.000000
    181 F     c      -0.000001      0.000001      0.000003      0.000000
    182 F     c      -0.000027     -0.000102     -0.000348      0.000000
    183 F     c       0.000016     -0.000023      0.000090      0.000000
    184 F     c       0.000005     -0.000001     -0.000013      0.000000
    185 F     c      -0.000008      0.000002     -0.000021      0.000000
    186 F     c       0.000001     -0.000002      0.000004      0.000000
    187 O1    s       0.000004      0.000006     -0.000021      0.000000
    188 O3    s       0.000007      0.000003      0.000046      0.000000
    189 O3    s       0.000172     -0.000147     -0.000105      0.000000
    190 O3    s       0.000100     -0.000117      0.000278      0.000000
    191 O3    s      -0.000001      0.000004     -0.000005      0.000000
    192 O3    s       0.000001      0.000000      0.000000      0.000000
    193 O1    s       0.000005     -0.000014      0.000063      0.000000
    194 O1    s      -0.000313     -0.000162     -0.000395      0.000000
    195 O1    s       0.000002     -0.000002      0.000016      0.000000
    196 O1    s       0.000014     -0.000017     -0.000019      0.000000
    197 O1    s       0.000002      0.000001      0.000012      0.000000
    198 O1    s      -0.000014      0.000165      0.000109      0.000000
    199 O1    s      -0.000007      0.000004     -0.000018      0.000000
    200 O1    s       0.000291      0.000216     -0.000681      0.000000
    201 O1    s       0.000006      0.000000     -0.000009      0.000000
    202 O1    s      -0.000016     -0.000025     -0.000211      0.000000
    203 O1    s      -0.000001      0.000004      0.000011      0.000000
    204 O1    s       0.000022     -0.000000     -0.000042      0.000000
    205 O1    s      -0.000008     -0.000010     -0.000002      0.000000
    206 O3    s       0.000025     -0.000012      0.000030      0.000000
    207 O1    s       0.000231     -0.000701     -0.000323      0.000000
    208 O3    s       0.000059     -0.000061     -0.000011      0.000000
    209 O1    s       0.000011      0.000004      0.000002      0.000000
    210 O3    s      -0.000004      0.000006     -0.000004      0.000000
    211 O1    s      -0.000015     -0.000006     -0.000001      0.000000
    212 O1    s       0.000002      0.000001      0.000021      0.000000
    213 O3    s       0.000028     -0.000021      0.000168      0.000000
    214 O3    s      -0.000016      0.000003      0.000026      0.000000
    215 O1    s       0.000449     -0.000433     -0.000444      0.000000
    216 O1    s       0.000002     -0.000003     -0.000000      0.000000
    217 O3    s       0.000002     -0.000012      0.000038      0.000000
    218 O1    s      -0.000019      0.000052      0.000449      0.000000
    219 O3    s      -0.000011     -0.000003     -0.000049      0.000000
    220 O3    s      -0.000014      0.000026     -0.000018      0.000000
    221 O3    s       0.000004     -0.000002      0.000012      0.000000
    222 O3    s      -0.000023     -0.000010      0.000058      0.000000
    223 O1    s      -0.000008      0.000003      0.000000      0.000000
    224 O3    s       0.000011      0.000008     -0.000028      0.000000
    225 O1    s      -0.000135      0.000091      0.000053      0.000000
    226 O3    s      -0.000087      0.000059      0.000405      0.000000
    227 O1    s       0.000002     -0.000002      0.000002      0.000000
    228 O3    s       0.000001     -0.000000     -0.000000      0.000000
    229 O1    s      -0.000008      0.000001      0.000014      0.000000
    230 O1    s      -0.000003      0.000001     -0.000001      0.000000
    231 O3    s       0.000083      0.000002      0.000157      0.000000
    232 O3    s      -0.000019      0.000014     -0.000075      0.000000
    233 O1    s      -0.000046      0.000095      0.000066      0.000000
    234 O1    s       0.000001      0.000002      0.000019      0.000000
    235 O1    s      -0.000001     -0.000005      0.000014      0.000000
    236 O1    s      -0.000523      0.000312      0.000242      0.000000
    237 O1    s      -0.000060      0.000050      0.000081      0.000000
    238 O1    s      -0.000014      0.000029     -0.000024      0.000000
    239 O1    s      -0.000000      0.000002     -0.000025      0.000000
    240 O1    s       0.000008      0.000007     -0.000038      0.000000
    241 O1    s       0.000008     -0.000009      0.000005      0.000000
    242 O1    s       0.000008     -0.000002      0.000005      0.000000
    243 O1    s       0.000042      0.000010     -0.001042      0.000000
    244 O1    s       0.000052     -0.000042     -0.000080      0.000000
    245 O1    s       0.000000      0.000017      0.000003      0.000000
    246 O1    s      -0.000001      0.000006     -0.000003      0.000000
[...]
    298 O1    s       0.000010      0.000003     -0.000008      0.000000
    299 O1    s      -0.000234      0.000485      0.001182      0.000000
    300 O1    s      -0.000000      0.000004      0.000003      0.000000
    301 O1    s       0.000000     -0.000001     -0.000010      0.000000
    302 O1    s      -0.000210      0.000641      0.003159      0.000000
    303 O1    s      -0.000001      0.000002     -0.000006      0.000000
    304 O1    s       0.000018     -0.000001     -0.000140      0.000000
    305 O1    s       0.000002      0.000001     -0.000017      0.000000
    306 O1    s      -0.000087      0.000011      0.000179      0.000000
    307 F     s       0.000002     -0.000001      0.000000      0.000000
    308 F     s      -0.000109      0.000439      0.000935      0.000000
    309 F     s       0.000017     -0.000014     -0.000071      0.000000
    310 F     s       0.000001     -0.000005      0.000029      0.000000
    311 F     s      -0.000001     -0.000001      0.000009      0.000000
    312 F     s      -0.000008      0.000010      0.000006      0.000000
  Maximum abs         0.001593      0.001389      0.003939      0.000000

  Time to end of optimisation =     158.3382 seconds

  Timing analysis for GULP :

  Task / Subroutine                                          Time (Seconds)
  Calculation of reciprocal space energy and derivatives          4.6290
  Calculation of real space energy and derivatives               97.0644
  Calculation of three-body energy and derivatives                0.5810
  Global summation overhead                                       0.0002

  Dump file written as 55.2.res
  CIF file written as 55.2.cif

  Job Finished at 00:46.01  6th January    2017