  Job Started  at 01:43.51  6th January    2017

  Number of CPUs =     1

  Total number of configurations input =   1

*  Input for Configuration =   1                                               *

  Formula = Ge59SiO120F6

  Number of irreducible atoms/shells =     312

  Total number atoms/shells =     312

  Dimensionality = 3               :  Bulk

  Charge on solid   =  -6.000000 =>neutralising background added

  Cartesian lattice vectors (Angstroms) :

       12.594298    0.000000    0.000000
       -6.378658   10.870415    0.000000
        0.018183   -0.020009   31.205674

  Cell parameters (Angstroms/Degrees):

  a =      12.5943    alpha =  90.0486
  b =      12.6037    beta  =  89.9666
  c =      31.2057    gamma = 120.4040

  Initial cell volume =        4272.220627 Angs**3

  Temperature of configuration =  0.000     K

  Pressure of configuration =         0.000 GPa

  Fractional coordinates of asymmetric unit :

   No.  Atomic       x           y          z         Charge      Occupancy
        Label      (Frac)      (Frac)     (Frac)        (e)         (Frac)
      1 Ge    c    0.699600    0.375700    0.033890     4.00000    1.000000
      2 Ge    c    0.629358 *  0.324567 *  0.366963 *   4.00000    1.000000
      3 Ge    c    0.679128 *  0.300362 *  0.700666 *   4.00000    1.000000
      4 Ge    c    0.304839 *  0.628463 *  0.533634 *   4.00000    1.000000
      5 Ge    c    0.370911 *  0.675520 *  0.865880 *   4.00000    1.000000
      6 Ge    c    0.321878 *  0.697292 *  0.200701 *   4.00000    1.000000
      7 Ge    c    0.371424 *  0.693970 *  0.301187 *   4.00000    1.000000
      8 Ge    c    0.323995 *  0.629239 *  0.966380 *   4.00000    1.000000
      9 Ge    c    0.300692 *  0.675883 *  0.634273 *   4.00000    1.000000
     10 Ge    c    0.627223 *  0.305340 *  0.800801 *   4.00000    1.000000
     11 Ge    c    0.675519 *  0.371040 *  0.467542 *   4.00000    1.000000
     12 Ge    c    0.697721 *  0.322528 *  0.133752 *   4.00000    1.000000
     13 Ge    c    0.528858 *  0.413808 *  0.967907 *   4.00000    1.000000
     14 Ge    c    0.587975 *  0.115212 *  0.301680 *   4.00000    1.000000
     15 Ge    c    0.886577 *  0.468547 *  0.633559 *   4.00000    1.000000
     16 Ge    c    0.471579 *  0.585701 *  0.467997 *   4.00000    1.000000
     17 Ge    c    0.411497 *  0.885458 *  0.801033 *   4.00000    1.000000
     18 Ge    c    0.115846 *  0.531133 *  0.132807 *   4.00000    1.000000
     19 Ge    c    0.414529 *  0.527617 *  0.366941 *   4.00000    1.000000
     20 Ge    c    0.115453 *  0.588552 *  0.032046 *   4.00000    1.000000
     21 Ge    c    0.471770 *  0.886059 *  0.700330 *   4.00000    1.000000
     22 Ge    c    0.584783 *  0.472071 *  0.866615 *   4.00000    1.000000
     23 Ge    c    0.885172 *  0.412385 *  0.532773 *   4.00000    1.000000
     24 Ge    c    0.530863 *  0.114740 *  0.201043 *   4.00000    1.000000
     25 Ge    c    0.299071 *  0.397716 *  0.850905 *   4.00000    1.000000
     26 Ge    c    0.604383 *  0.904194 *  0.185863 *   4.00000    1.000000
     27 Ge    c    0.098714 *  0.698129 *  0.517627 *   4.00000    1.000000
     28 Ge    c    0.700516 *  0.601847 *  0.351831 *   4.00000    1.000000
     29 Ge    c    0.397119 *  0.095382 *  0.685072 *   4.00000    1.000000
     30 Ge    c    0.901768 *  0.302728 *  0.015521 *   4.00000    1.000000
     31 Ge    c    0.397486 *  0.299223 *  0.482938 *   4.00000    1.000000
     32 Ge    c    0.904647 *  0.604800 *  0.148110 *   4.00000    1.000000
     33 Ge    c    0.696414 *  0.098593 *  0.817409 *   4.00000    1.000000
     34 Ge    c    0.601344 *  0.700655 *  0.981629 *   4.00000    1.000000
     35 Ge    c    0.095499 *  0.391911 *  0.648148 *   4.00000    1.000000
     36 Ge    c    0.302655 *  0.901059 *  0.317849 *   4.00000    1.000000
     37 Ge    c    0.250927 *  0.345007 *  0.951397 *   4.00000    1.000000
     38 Ge    c    0.659336 *  0.908701 *  0.286635 *   4.00000    1.000000
     39 Ge    c    0.091778 *  0.750856 *  0.617970 *   4.00000    1.000000
     40 Ge    c    0.749775 *  0.655603 *  0.452265 *   4.00000    1.000000
     41 Ge    c    0.340446 *  0.091532 *  0.785468 *   4.00000    1.000000
     42 Ge    c    0.907665 *  0.250473 *  0.116015 *   4.00000    1.000000
     43 Ge    c    0.344940 *  0.250172 *  0.382383 *   4.00000    1.000000
     44 Ge    c    0.910700 *  0.662377 *  0.047513 *   4.00000    1.000000
     45 Ge    c    0.753741 *  0.091632 *  0.717268 *   4.00000    1.000000
     46 Ge    c    0.655638 *  0.750473 *  0.881267 *   4.00000    1.000000
     47 Ge    c    0.092101 *  0.341408 *  0.546898 *   4.00000    1.000000
     48 Ge    c    0.251262 *  0.907852 *  0.217665 *   4.00000    1.000000
     49 Ge    c    0.970777 *  0.125123 *  0.965533 *   4.00000    1.000000
     50 Ge    c    0.877825 *  0.848874 *  0.300976 *   4.00000    1.000000
     51 Ge    c    0.147999 *  0.030736 *  0.635234 *   4.00000    1.000000
     52 Ge    c    0.029438 *  0.875466 *  0.467647 *   4.00000    1.000000
     53 Ge    c    0.121053 *  0.153211 *  0.798119 *   4.00000    1.000000
     54 Ge    c    0.850189 *  0.971013 *  0.133512 *   4.00000    1.000000
     55 Ge    c    0.124768 *  0.970779 *  0.367396 *   4.00000    1.000000
     56 Ge    c    0.848765 *  0.879071 *  0.032353 *   4.00000    1.000000
     57 Si    c    0.028934 *  0.150085 *  0.699487 *   4.00000    1.000000
     58 Ge    c    0.876237 *  0.029755 *  0.865342 *   4.00000    1.000000
     59 Ge    c    0.150861 *  0.122094 *  0.534110 *   4.00000    1.000000
     60 Ge    c    0.971355 *  0.850402 *  0.200178 *   4.00000    1.000000
     61 O1    c    0.922709 *  0.005944 *  0.000674 *   1.73396    1.000000
[...]
    172 O1    c    0.441841 *  0.415428 *  0.843083 *   1.73396    1.000000
    173 O1    c    0.972485 *  0.555140 *  0.509147 *   1.73396    1.000000
    174 O1    c    0.587834 *  0.029329 *  0.177700 *   1.73396    1.000000
    175 O1    c    0.587424 *  0.171665 *  0.251366 *   1.73396    1.000000
    176 O1    c    0.829424 *  0.412143 *  0.583252 *   1.73396    1.000000
    177 O1    c    0.583684 *  0.415398 *  0.916948 *   1.73396    1.000000
    178 O1    c    0.414438 *  0.830470 *  0.750680 *   1.73396    1.000000
    179 O1    c    0.171523 *  0.587450 *  0.082387 *   1.73396    1.000000
    180 O1    c    0.415322 *  0.584018 *  0.417399 *   1.73396    1.000000
    181 F     c    0.449169 *  0.905042 *  0.251677 *   0.56000    1.000000
    182 F     c    0.097061 *  0.549756 *  0.582003 *   0.56000    1.000000
    183 F     c    0.449131 *  0.550892 *  0.915986 *   0.56000    1.000000
    184 F     c    0.547602 *  0.096012 *  0.751395 *   0.56000    1.000000
    185 F     c    0.900866 *  0.451091 *  0.081007 *   0.56000    1.000000
    186 F     c    0.550184 *  0.449521 *  0.416770 *   0.56000    1.000000
    187 O1    s    0.920596 *  0.005179 *  0.000402 *  -3.73396    1.000000
    188 O1    s    0.004765 *  0.921940 *  0.332558 *  -3.73396    1.000000
    189 O3    s    0.070253 *  0.078939 *  0.668767 *  -3.33043    1.000000
    190 O1    s    0.078429 *  0.994218 *  0.502990 *  -3.73396    1.000000
    191 O1    s    0.993594 *  0.078186 *  0.829326 *  -3.73396    1.000000
    192 O1    s    0.928410 *  0.927878 *  0.166560 *  -3.73396    1.000000
    193 O1    s    0.341480 *  0.575251 *  0.333722 *  -3.73396    1.000000
    194 O1    s    0.418994 *  0.762837 *  0.667638 *  -3.73396    1.000000
    195 O1    s    0.238164 *  0.661091 *  0.999478 *  -3.73396    1.000000
    196 O1    s    0.657763 *  0.424114 *  0.833333 *  -3.73396    1.000000
    197 O1    s    0.581163 *  0.236169 *  0.167533 *  -3.73396    1.000000
    198 O1    s    0.761460 *  0.339460 *  0.500511 *  -3.73396    1.000000
    199 O1    s    0.578095 *  0.344337 *  0.000994 *  -3.73396    1.000000
    200 O1    s    0.765614 *  0.417673 *  0.667033 *  -3.73396    1.000000
    201 O1    s    0.661148 *  0.238613 *  0.333971 *  -3.73396    1.000000
    202 O1    s    0.424511 *  0.658982 *  0.501064 *  -3.73396    1.000000
    203 O1    s    0.236378 *  0.580854 *  0.166417 *  -3.73396    1.000000
    204 O1    s    0.338639 *  0.761276 *  0.832936 *  -3.73396    1.000000
    205 O1    s    0.121806 *  0.223010 *  0.972183 *  -3.73396    1.000000
    206 O1    s    0.779448 *  0.901384 *  0.308039 *  -3.73396    1.000000
    207 O1    s    0.094548 *  0.878437 *  0.638528 *  -3.73396    1.000000
    208 O1    s    0.877527 *  0.778318 *  0.473144 *  -3.73396    1.000000
    209 O1    s    0.217306 *  0.098626 *  0.804944 *  -3.73396    1.000000
    210 O1    s    0.903447 *  0.123189 *  0.136624 *  -3.73396    1.000000
    211 O1    s    0.222528 *  0.122135 *  0.361415 *  -3.73396    1.000000
    212 O1    s    0.903977 *  0.782774 *  0.026061 *  -3.73396    1.000000
    213 O3    s    0.887093 *  0.099529 *  0.697576 *  -3.33043    1.000000
    214 O1    s    0.778635 *  0.877893 *  0.860207 *  -3.73396    1.000000
    215 O1    s    0.099003 *  0.220298 *  0.526005 *  -3.73396    1.000000
    216 O1    s    0.123304 *  0.903704 *  0.197261 *  -3.73396    1.000000
    217 O1    s    0.928664 *  0.872270 *  0.249645 *  -3.73396    1.000000
    218 O1    s    0.126193 *  0.071231 *  0.585574 *  -3.73396    1.000000
    219 O1    s    0.939600 *  0.064959 *  0.915257 *  -3.73396    1.000000
    220 O3    s    0.068320 *  0.134133 *  0.745789 *  -3.33043    1.000000
    221 O1    s    0.871444 *  0.930387 *  0.083690 *  -3.73396    1.000000
    222 O1    s    0.063980 *  0.937656 *  0.417639 *  -3.73396    1.000000
    223 O1    s    0.905069 *  0.209484 *  0.976542 *  -3.73396    1.000000
    224 O1    s    0.794549 *  0.699259 *  0.313042 *  -3.73396    1.000000
    225 O1    s    0.297470 *  0.094025 *  0.647315 *  -3.73396    1.000000
    226 O1    s    0.093762 *  0.790355 *  0.478453 *  -3.73396    1.000000
    227 O1    s    0.204919 *  0.301343 *  0.811666 *  -3.73396    1.000000
    228 O1    s    0.701033 *  0.905382 *  0.147240 *  -3.73396    1.000000
    229 O1    s    0.209279 *  0.905487 *  0.356707 *  -3.73396    1.000000
    230 O1    s    0.699230 *  0.794751 *  0.020413 *  -3.73396    1.000000
    231 O3    s    0.089667 *  0.288111 *  0.686189 *  -3.33043    1.000000
    232 O1    s    0.790373 *  0.094047 *  0.855927 *  -3.73396    1.000000
    233 O1    s    0.300741 *  0.205567 *  0.521872 *  -3.73396    1.000000
    234 O1    s    0.906100 *  0.701158 *  0.186881 *  -3.73396    1.000000
    235 O1    s    0.319552 *  0.645469 *  0.250917 *  -3.73396    1.000000
    236 O1    s    0.352884 *  0.677640 *  0.584030 *  -3.73396    1.000000
    237 O1    s    0.322312 *  0.677438 *  0.916136 *  -3.73396    1.000000
    238 O1    s    0.680077 *  0.352986 *  0.750646 *  -3.73396    1.000000
    239 O1    s    0.647370 *  0.322380 *  0.083463 *  -3.73396    1.000000
    240 O1    s    0.677572 *  0.322929 *  0.417236 *  -3.73396    1.000000
    241 O1    s    0.373116 *  0.335219 *  0.966531 *  -3.73396    1.000000
    242 O1    s    0.667780 *  0.040704 *  0.301384 *  -3.73396    1.000000
[...]
   197  O1    s     0.556576    0.219851    0.167328    0.000000
   198  O1    s     0.751004    0.313371    0.501295    0.000000
   199  O1    s     0.573652    0.349234    0.000636    0.000000
   200  O1    s     0.772783    0.394801    0.668286    0.000000
   201  O1    s     0.619900    0.198607    0.334392    0.000000
   202  O1    s     0.404116    0.615203    0.501612    0.000000
   203  O1    s     0.205611    0.566242    0.167401    0.000000
   204  O1    s     0.355956    0.764381    0.833832    0.000000
   205  O1    s     0.125665    0.217802    0.968660    0.000000
   206  O1    s     0.753337    0.882399    0.301597    0.000000
   207  O1    s     0.089094    0.848310    0.637796    0.000000
   208  O1    s     0.852719    0.747152    0.468521    0.000000
   209  O1    s     0.222571    0.082093    0.799661    0.000000
   210  O1    s     0.889257    0.116990    0.134895    0.000000
   211  O1    s     0.186503    0.084772    0.356343    0.000000
   212  O1    s     0.892259    0.781970    0.022244    0.000000
   213  O3    s     0.896989    0.081401    0.690646    0.000000
   214  O1    s     0.789681    0.878147    0.855629    0.000000
   215  O1    s     0.085607    0.181978    0.522513    0.000000
   216  O1    s     0.090984    0.885604    0.189089    0.000000
   217  O1    s     0.927615    0.848280    0.254695    0.000000
   218  O1    s     0.119587    0.051940    0.588389    0.000000
   219  O1    s     0.923823    0.043912    0.919851    0.000000
   220  O3    s     0.052636    0.120286    0.749840    0.000000
   221  O1    s     0.857034    0.910360    0.087625    0.000000
   222  O1    s     0.060440    0.920674    0.421500    0.000000
   223  O1    s     0.907867    0.209589    0.974316    0.000000
   224  O1    s     0.757946    0.671115    0.308427    0.000000
   225  O1    s     0.298159    0.061712    0.641735    0.000000
   226  O1    s     0.070068    0.753970    0.476494    0.000000
   227  O1    s     0.217360    0.292815    0.807461    0.000000
   228  O1    s     0.678182    0.900958    0.141307    0.000000
   229  O1    s     0.159411    0.861718    0.349826    0.000000
   230  O1    s     0.697616    0.811178    0.016421    0.000000
   231  O3    s     0.104349    0.262794    0.682958    0.000000
   232  O1    s     0.815217    0.100498    0.850889    0.000000
   233  O1    s     0.279984    0.153357    0.517283    0.000000
   234  O1    s     0.868045    0.689893    0.183126    0.000000
   235  O1    s     0.311096    0.621128    0.247448    0.000000
   236  O1    s     0.349346    0.662390    0.582448    0.000000
   237  O1    s     0.305851    0.660115    0.914063    0.000000
   238  O1    s     0.666187    0.340469    0.747499    0.000000
   239  O1    s     0.627823    0.298013    0.080642    0.000000
   240  O1    s     0.670632    0.303740    0.414635    0.000000
   241  O1    s     0.379753    0.341860    0.957868    0.000000
   242  O1    s     0.628564    0.012513    0.291364    0.000000
   243  O1    s     0.959480    0.592555    0.627154    0.000000
   244  O1    s     0.597780    0.622572    0.458536    0.000000
   245  O1    s     0.347132    0.950350    0.791303    0.000000
   246  O1    s     0.019412    0.371431    0.124622    0.000000
[...]
   298  O1    s     0.439983    0.400383    0.848052    0.000000
   299  O1    s     0.956618    0.531839    0.515989    0.000000
   300  O1    s     0.568768    0.014401    0.181275    0.000000
   301  O1    s     0.514494    0.121574    0.251871    0.000000
   302  O1    s     0.850608    0.370414    0.585842    0.000000
   303  O1    s     0.602406    0.455909    0.918465    0.000000
   304  O1    s     0.464307    0.843380    0.751895    0.000000
   305  O1    s     0.127892    0.593895    0.085006    0.000000
   306  O1    s     0.374788    0.509140    0.419068    0.000000
   307  F     s     0.393158    0.838187    0.236639    0.000000
   308  F     s     0.132531    0.530351    0.571078    0.000000
   309  F     s     0.440530    0.577359    0.903432    0.000000
   310  F     s     0.585342    0.124215    0.736538    0.000000
   311  F     s     0.844639    0.432468    0.069820    0.000000
   312  F     s     0.536207    0.386578    0.403879    0.000000

  Final Cartesian lattice vectors (Angstroms) :

       12.606630    0.058842   -0.004316
       -6.334116   10.900075   -0.003838
        0.007413   -0.037326   30.536483

  Final cell parameters and derivatives :

       a           12.606768 Angstrom     dE/de1(xx)    -0.000037 eV/strain
       b           12.606851 Angstrom     dE/de2(yy)    -0.000033 eV/strain
       c           30.536507 Angstrom     dE/de3(zz)     0.000167 eV/strain
       alpha       90.084983 Degrees      dE/de4(yz)    -0.000006 eV/strain
       beta        90.006034 Degrees      dE/de5(xz)     0.000011 eV/strain
       gamma      119.893758 Degrees      dE/de6(xy)    -0.000026 eV/strain

  Primitive cell volume =          4207.495316 Angs**3

  Density of cell =      2.504597 g/cm**3

  Non-primitive cell volume =          4207.495316 Angs**3

  Final internal derivatives :

   No.  Atomic          a             b             c           Radius
        Label          (eV)          (eV)          (eV)        (eV/Angs)
      1 Ge    c       0.000000      0.000000      0.000000      0.000000
      2 Ge    c       0.000013     -0.000037     -0.000119      0.000000
      3 Ge    c       0.000008     -0.000015     -0.000012      0.000000
      4 Ge    c      -0.000020     -0.000022     -0.000067      0.000000
      5 Ge    c       0.000019      0.000014     -0.000114      0.000000
      6 Ge    c      -0.000014      0.000016     -0.000080      0.000000
      7 Ge    c      -0.000016      0.000018      0.000062      0.000000
      8 Ge    c       0.000005      0.000002      0.000111      0.000000
      9 Ge    c      -0.000008     -0.000012      0.000093      0.000000
     10 Ge    c       0.000015     -0.000009      0.000040      0.000000
     11 Ge    c      -0.000022      0.000007      0.000034      0.000000
     12 Ge    c      -0.000008      0.000029      0.000024      0.000000
     13 Ge    c       0.000005     -0.000007      0.000008      0.000000
     14 Ge    c      -0.000004     -0.000002      0.000017      0.000000
     15 Ge    c       0.000001      0.000006      0.000003      0.000000
     16 Ge    c       0.000008     -0.000008      0.000020      0.000000
     17 Ge    c       0.000001      0.000014      0.000012      0.000000
     18 Ge    c      -0.000031     -0.000004     -0.000005      0.000000
     19 Ge    c       0.000002     -0.000008     -0.000012      0.000000
     20 Ge    c      -0.000022      0.000013     -0.000005      0.000000
     21 Ge    c       0.000010     -0.000002     -0.000018      0.000000
     22 Ge    c       0.000008     -0.000006     -0.000026      0.000000
     23 Ge    c       0.000020     -0.000004     -0.000011      0.000000
     24 Ge    c      -0.000014     -0.000011     -0.000024      0.000000
     25 Ge    c       0.000001     -0.000016     -0.000043      0.000000
     26 Ge    c      -0.000018      0.000013     -0.000042      0.000000
     27 Ge    c      -0.000005     -0.000022     -0.000002      0.000000
     28 Ge    c      -0.000008      0.000003     -0.000048      0.000000
     29 Ge    c       0.000013     -0.000012     -0.000010      0.000000
     30 Ge    c       0.000033     -0.000006      0.000075      0.000000
     31 Ge    c       0.000020      0.000007      0.000018      0.000000
     32 Ge    c       0.000002     -0.000026     -0.000020      0.000000
     33 Ge    c      -0.000017      0.000015      0.000015      0.000000
     34 Ge    c      -0.000019     -0.000004      0.000050      0.000000
     35 Ge    c      -0.000005      0.000023      0.000019      0.000000
     36 Ge    c       0.000015     -0.000009      0.000029      0.000000
     37 Ge    c       0.000002     -0.000017      0.000062      0.000000
     38 Ge    c       0.000003      0.000007      0.000063      0.000000
     39 Ge    c      -0.000016      0.000003      0.000059      0.000000
     40 Ge    c      -0.000005      0.000014      0.000091      0.000000
     41 Ge    c      -0.000005     -0.000007      0.000081      0.000000
     42 Ge    c       0.000015      0.000001      0.000018      0.000000
     43 Ge    c       0.000008     -0.000001     -0.000074      0.000000
     44 Ge    c       0.000003      0.000003     -0.000049      0.000000
     45 Ge    c       0.000005     -0.000003     -0.000054      0.000000
     46 Ge    c      -0.000010      0.000002     -0.000062      0.000000
     47 Ge    c       0.000003      0.000007     -0.000058      0.000000
     48 Ge    c       0.000013     -0.000005     -0.000056      0.000000
     49 Ge    c       0.000014     -0.000029     -0.000082      0.000000
     50 Ge    c      -0.000015      0.000012      0.000025      0.000000
     51 Ge    c      -0.000003     -0.000007      0.000042      0.000000
     52 Ge    c      -0.000006      0.000002      0.000008      0.000000
     53 Ge    c      -0.000020      0.000016      0.000122      0.000000
     54 Ge    c      -0.000004     -0.000002     -0.000003      0.000000
     55 Ge    c       0.000011      0.000000     -0.000083      0.000000
     56 Ge    c      -0.000007     -0.000024     -0.000047      0.000000
     57 Si    c      -0.000010     -0.000003     -0.000051      0.000000
     58 Ge    c       0.000037     -0.000026     -0.000019      0.000000
     59 Ge    c      -0.000004      0.000020     -0.000064      0.000000
     60 Ge    c       0.000017     -0.000015     -0.000043      0.000000
[...]
    172 O1    c       0.000026     -0.000008      0.000037      0.000000
    173 O1    c       0.000012     -0.000008      0.000046      0.000000
    174 O1    c      -0.000003      0.000007      0.000024      0.000000
    175 O1    c      -0.000016      0.000008      0.000041      0.000000
    176 O1    c       0.000003     -0.000005     -0.000022      0.000000
    177 O1    c      -0.000004      0.000020     -0.000010      0.000000
    178 O1    c       0.000006     -0.000006      0.000011      0.000000
    179 O1    c       0.000049     -0.000047      0.000012      0.000000
    180 O1    c      -0.000016     -0.000002     -0.000040      0.000000
    181 F     c       0.000003      0.000002      0.000002      0.000000
    182 F     c       0.000013     -0.000007     -0.000030      0.000000
    183 F     c       0.000028     -0.000011      0.000036      0.000000
    184 F     c       0.000002      0.000002     -0.000005      0.000000
    185 F     c      -0.000047      0.000004     -0.000023      0.000000
    186 F     c      -0.000008      0.000007      0.000017      0.000000
    187 O1    s       0.000023     -0.000010      0.000029      0.000000
    188 O1    s      -0.000004     -0.000004     -0.000004      0.000000
    189 O3    s       0.000002     -0.000003     -0.000025      0.000000
    190 O1    s      -0.000015      0.000009      0.000022      0.000000
    191 O1    s       0.000001      0.000002      0.000080      0.000000
    192 O1    s       0.000005     -0.000002     -0.000011      0.000000
    193 O1    s       0.000010     -0.000000     -0.000012      0.000000
    194 O1    s      -0.000009     -0.000003     -0.000038      0.000000
    195 O1    s      -0.000009      0.000014     -0.000008      0.000000
    196 O1    s      -0.000007     -0.000008      0.000000      0.000000
    197 O1    s       0.000014     -0.000005     -0.000012      0.000000
    198 O1    s      -0.000006      0.000018     -0.000016      0.000000
    199 O1    s       0.000025     -0.000013      0.000014      0.000000
    200 O1    s      -0.000003     -0.000006      0.000003      0.000000
    201 O1    s      -0.000012      0.000011     -0.000001      0.000000
    202 O1    s       0.000000     -0.000002      0.000016      0.000000
    203 O1    s      -0.000025     -0.000002     -0.000055      0.000000
    204 O1    s       0.000013     -0.000022     -0.000008      0.000000
    205 O1    s       0.000001     -0.000002      0.000051      0.000000
    206 O1    s      -0.000009     -0.000001      0.000029      0.000000
    207 O1    s       0.000002     -0.000000      0.000029      0.000000
    208 O1    s       0.000006     -0.000001      0.000028      0.000000
    209 O1    s      -0.000020      0.000021      0.000065      0.000000
    210 O1    s      -0.000005      0.000008      0.000006      0.000000
    211 O1    s      -0.000000      0.000000     -0.000011      0.000000
    212 O1    s       0.000016     -0.000019     -0.000016      0.000000
    213 O3    s       0.000004     -0.000004     -0.000027      0.000000
    214 O1    s       0.000003     -0.000003     -0.000003      0.000000
    215 O1    s      -0.000010      0.000006     -0.000011      0.000000
    216 O1    s      -0.000003      0.000001     -0.000009      0.000000
    217 O1    s      -0.000001     -0.000011     -0.000050      0.000000
    218 O1    s       0.000009     -0.000001     -0.000056      0.000000
    219 O1    s       0.000016     -0.000024     -0.000102      0.000000
    220 O3    s      -0.000001      0.000017     -0.000004      0.000000
    221 O1    s      -0.000005     -0.000008     -0.000061      0.000000
    222 O1    s       0.000008     -0.000011     -0.000082      0.000000
    223 O1    s       0.000009     -0.000003      0.000023      0.000000
    224 O1    s      -0.000010      0.000005      0.000003      0.000000
    225 O1    s       0.000007     -0.000012      0.000003      0.000000
    226 O1    s      -0.000005     -0.000005      0.000025      0.000000
    227 O1    s       0.000002      0.000003     -0.000006      0.000000
    228 O1    s      -0.000005      0.000010      0.000001      0.000000
    229 O1    s       0.000008     -0.000008     -0.000010      0.000000
    230 O1    s      -0.000003     -0.000020     -0.000019      0.000000
    231 O3    s      -0.000000      0.000004     -0.000016      0.000000
    232 O1    s       0.000019     -0.000016      0.000000      0.000000
    233 O1    s       0.000007      0.000000     -0.000014      0.000000
    234 O1    s       0.000014     -0.000028     -0.000037      0.000000
    235 O1    s      -0.000009      0.000022     -0.000017      0.000000
    236 O1    s      -0.000049     -0.000014     -0.000054      0.000000
    237 O1    s       0.000029     -0.000018      0.000046      0.000000
    238 O1    s       0.000006     -0.000014     -0.000040      0.000000
    239 O1    s       0.000010      0.000032     -0.000043      0.000000
    240 O1    s      -0.000038      0.000015     -0.000036      0.000000
    241 O1    s       0.000007      0.000003      0.000042      0.000000
    242 O1    s      -0.000005     -0.000007      0.000027      0.000000
    243 O1    s       0.000004      0.000001      0.000001      0.000000
    244 O1    s       0.000008     -0.000005      0.000005      0.000000
    245 O1    s      -0.000005      0.000007      0.000019      0.000000
    246 O1    s      -0.000019      0.000009     -0.000052      0.000000
[...]
    298 O1    s      -0.000009      0.000004     -0.000031      0.000000
    299 O1    s      -0.000006      0.000004     -0.000030      0.000000
    300 O1    s      -0.000001     -0.000003     -0.000024      0.000000
    301 O1    s       0.000013     -0.000007     -0.000024      0.000000
    302 O1    s       0.000004      0.000003      0.000003      0.000000
    303 O1    s      -0.000001     -0.000008     -0.000002      0.000000
    304 O1    s      -0.000003     -0.000000     -0.000023      0.000000
    305 O1    s      -0.000036     -0.000016     -0.000049      0.000000
    306 O1    s       0.000009      0.000001      0.000006      0.000000
    307 F     s      -0.000009      0.000003      0.000014      0.000000
    308 F     s      -0.000002      0.000009      0.000013      0.000000
    309 F     s      -0.000025     -0.000004     -0.000002      0.000000
    310 F     s      -0.000001     -0.000002      0.000002      0.000000
    311 F     s       0.000005      0.000011     -0.000105      0.000000
    312 F     s      -0.000017      0.000027      0.000044      0.000000
  Maximum abs         0.000051      0.000076      0.000199      0.000000

  Time to end of optimisation =      64.0560 seconds

  Timing analysis for GULP :

  Task / Subroutine                                          Time (Seconds)
  Calculation of reciprocal space energy and derivatives          2.0471
  Calculation of real space energy and derivatives               36.6492
  Calculation of three-body energy and derivatives                0.0514

  Dump file written as 59.2.res
  CIF file written as 59.2.cif

  Job Finished at 01:44.55  6th January    2017