  Job Started  at 01:45.40  6th January    2017

  Number of CPUs =     1

  Total number of configurations input =   1

*  Input for Configuration =   1                                               *

  Formula = Ge59SiO120F6

  Number of irreducible atoms/shells =     312

  Total number atoms/shells =     312

  Dimensionality = 3               :  Bulk

  Charge on solid   =  -6.000000 =>neutralising background added

  Cartesian lattice vectors (Angstroms) :

       12.486400    0.000000    0.000000
       -6.325086   10.756813    0.000000
       -0.083509   -0.086048   31.173727

  Cell parameters (Angstroms/Degrees):

  a =      12.4864    alpha =  90.0585
  b =      12.4786    beta  =  90.1535
  c =      31.1740    gamma = 120.4558

  Initial cell volume =        4187.063862 Angs**3

  Temperature of configuration =  0.000     K

  Pressure of configuration =         0.000 GPa

  Fractional coordinates of asymmetric unit :

   No.  Atomic       x           y          z         Charge      Occupancy
        Label      (Frac)      (Frac)     (Frac)        (e)         (Frac)
      1 Ge    c    0.699600    0.375700    0.033890     4.00000    1.000000
      2 Ge    c    0.635364 *  0.322410 *  0.366535 *   4.00000    1.000000
      3 Ge    c    0.677567 *  0.305409 *  0.700961 *   4.00000    1.000000
      4 Ge    c    0.307719 *  0.633123 *  0.531337 *   4.00000    1.000000
      5 Ge    c    0.364963 *  0.676466 *  0.866238 *   4.00000    1.000000
      6 Ge    c    0.322758 *  0.694205 *  0.200270 *   4.00000    1.000000
      7 Ge    c    0.366741 *  0.689922 *  0.301248 *   4.00000    1.000000
      8 Ge    c    0.323474 *  0.635687 *  0.966804 *   4.00000    1.000000
      9 Ge    c    0.306178 *  0.676544 *  0.632666 *   4.00000    1.000000
     10 Ge    c    0.632412 *  0.310009 *  0.801873 *   4.00000    1.000000
     11 Ge    c    0.678709 *  0.367334 *  0.467382 *   4.00000    1.000000
     12 Ge    c    0.694627 *  0.322887 *  0.133746 *   4.00000    1.000000
     13 Ge    c    0.526396 *  0.409407 *  0.968127 *   4.00000    1.000000
     14 Ge    c    0.590161 *  0.113541 *  0.300693 *   4.00000    1.000000
     15 Ge    c    0.884630 *  0.470484 *  0.632522 *   4.00000    1.000000
     16 Ge    c    0.476906 *  0.590146 *  0.467010 *   4.00000    1.000000
     17 Ge    c    0.409058 *  0.885080 *  0.800912 *   4.00000    1.000000
     18 Ge    c    0.116914 *  0.529327 *  0.131615 *   4.00000    1.000000
     19 Ge    c    0.411310 *  0.524506 *  0.366943 *   4.00000    1.000000
     20 Ge    c    0.114893 *  0.592407 *  0.031926 *   4.00000    1.000000
     21 Ge    c    0.470477 *  0.883458 *  0.701287 *   4.00000    1.000000
     22 Ge    c    0.588693 *  0.473975 *  0.868009 *   4.00000    1.000000
     23 Ge    c    0.887469 *  0.410345 *  0.533060 *   4.00000    1.000000
     24 Ge    c    0.527798 *  0.114877 *  0.201581 *   4.00000    1.000000
     25 Ge    c    0.298296 *  0.398827 *  0.850819 *   4.00000    1.000000
     26 Ge    c    0.607112 *  0.904366 *  0.185048 *   4.00000    1.000000
     27 Ge    c    0.097284 *  0.699331 *  0.514923 *   4.00000    1.000000
     28 Ge    c    0.701101 *  0.600339 *  0.350010 *   4.00000    1.000000
     29 Ge    c    0.392021 *  0.095468 *  0.685603 *   4.00000    1.000000
     30 Ge    c    0.900351 *  0.304249 *  0.011921 *   4.00000    1.000000
     31 Ge    c    0.400451 *  0.299892 *  0.483617 *   4.00000    1.000000
     32 Ge    c    0.905333 *  0.608713 *  0.148934 *   4.00000    1.000000
     33 Ge    c    0.696452 *  0.099550 *  0.821337 *   4.00000    1.000000
     34 Ge    c    0.600716 *  0.702250 *  0.983308 *   4.00000    1.000000
     35 Ge    c    0.096881 *  0.391572 *  0.647592 *   4.00000    1.000000
     36 Ge    c    0.301048 *  0.900621 *  0.319292 *   4.00000    1.000000
     37 Ge    c    0.250373 *  0.348498 *  0.950811 *   4.00000    1.000000
     38 Ge    c    0.661151 *  0.905079 *  0.286006 *   4.00000    1.000000
     39 Ge    c    0.095436 *  0.749469 *  0.615427 *   4.00000    1.000000
     40 Ge    c    0.754476 *  0.656216 *  0.450269 *   4.00000    1.000000
     41 Ge    c    0.339942 *  0.093884 *  0.786446 *   4.00000    1.000000
     42 Ge    c    0.904500 *  0.249890 *  0.112382 *   4.00000    1.000000
     43 Ge    c    0.349236 *  0.249946 *  0.383614 *   4.00000    1.000000
     44 Ge    c    0.909470 *  0.665236 *  0.048041 *   4.00000    1.000000
     45 Ge    c    0.747613 *  0.094390 *  0.721241 *   4.00000    1.000000
     46 Ge    c    0.651321 *  0.750322 *  0.883315 *   4.00000    1.000000
     47 Ge    c    0.095192 *  0.338466 *  0.546492 *   4.00000    1.000000
     48 Ge    c    0.250654 *  0.904737 *  0.219115 *   4.00000    1.000000
     49 Ge    c    0.972787 *  0.125498 *  0.965691 *   4.00000    1.000000
     50 Ge    c    0.883499 *  0.849378 *  0.302150 *   4.00000    1.000000
     51 Ge    c    0.145673 *  0.028957 *  0.632409 *   4.00000    1.000000
     52 Si    c    0.026802 *  0.874146 *  0.467028 *   4.00000    1.000000
     53 Ge    c    0.120247 *  0.149739 *  0.800506 *   4.00000    1.000000
     54 Ge    c    0.852241 *  0.970507 *  0.132774 *   4.00000    1.000000
     55 Ge    c    0.126593 *  0.969223 *  0.371804 *   4.00000    1.000000
     56 Ge    c    0.850066 *  0.881717 *  0.033557 *   4.00000    1.000000
     57 Ge    c    0.028293 *  0.147593 *  0.701386 *   4.00000    1.000000
     58 Ge    c    0.875162 *  0.026433 *  0.868151 *   4.00000    1.000000
     59 Ge    c    0.150433 *  0.115982 *  0.531990 *   4.00000    1.000000
     60 Ge    c    0.972169 *  0.854370 *  0.202208 *   4.00000    1.000000
     61 O1    c    0.912469 *  0.016649 *  0.005548 *   1.73396    1.000000
[...]
    172 O1    c    0.443812 *  0.419254 *  0.844483 *   1.73396    1.000000
    173 O1    c    0.972641 *  0.552025 *  0.507466 *   1.73396    1.000000
    174 O1    c    0.588864 *  0.030577 *  0.178978 *   1.73396    1.000000
    175 O1    c    0.586068 *  0.175199 *  0.251651 *   1.73396    1.000000
    176 O1    c    0.825925 *  0.412630 *  0.582277 *   1.73396    1.000000
    177 O1    c    0.585901 *  0.412819 *  0.917603 *   1.73396    1.000000
    178 O1    c    0.412213 *  0.824928 *  0.751394 *   1.73396    1.000000
    179 O1    c    0.173960 *  0.587637 *  0.081499 *   1.73396    1.000000
    180 O1    c    0.416035 *  0.586298 *  0.416811 *   1.73396    1.000000
    181 F     c    0.444919 *  0.907749 *  0.250873 *   0.56000    1.000000
    182 F     c    0.094352 *  0.552917 *  0.580423 *   0.56000    1.000000
    183 F     c    0.446646 *  0.553195 *  0.916073 *   0.56000    1.000000
    184 F     c    0.551951 *  0.094635 *  0.753012 *   0.56000    1.000000
    185 F     c    0.898901 *  0.451158 *  0.078087 *   0.56000    1.000000
    186 F     c    0.548034 *  0.447699 *  0.416715 *   0.56000    1.000000
    187 O1    s    0.912176 *  0.013976 *  0.004755 *  -3.73396    1.000000
    188 O1    s    0.005304 *  0.906302 *  0.336597 *  -3.73396    1.000000
    189 O1    s    0.067111 *  0.076277 *  0.663586 *  -3.73396    1.000000
    190 O3    s    0.084791 *  0.981454 *  0.501308 *  -3.33043    1.000000
    191 O1    s    0.988812 *  0.086647 *  0.830146 *  -3.73396    1.000000
    192 O1    s    0.919401 *  0.930372 *  0.171871 *  -3.73396    1.000000
    193 O1    s    0.335378 *  0.569704 *  0.333444 *  -3.73396    1.000000
    194 O1    s    0.423566 *  0.763010 *  0.667067 *  -3.73396    1.000000
    195 O1    s    0.238145 *  0.668945 *  0.999532 *  -3.73396    1.000000
    196 O1    s    0.664404 *  0.431287 *  0.833747 *  -3.73396    1.000000
    197 O1    s    0.577547 *  0.236520 *  0.167521 *  -3.73396    1.000000
    198 O1    s    0.762956 *  0.333842 *  0.500204 *  -3.73396    1.000000
    199 O1    s    0.572078 *  0.339613 *  0.001789 *  -3.73396    1.000000
    200 O1    s    0.763977 *  0.422056 *  0.666509 *  -3.73396    1.000000
    201 O1    s    0.667781 *  0.237030 *  0.333791 *  -3.73396    1.000000
    202 O1    s    0.430164 *  0.665517 *  0.499830 *  -3.73396    1.000000
    203 O1    s    0.237001 *  0.576496 *  0.165661 *  -3.73396    1.000000
    204 O1    s    0.331854 *  0.760981 *  0.833185 *  -3.73396    1.000000
    205 O1    s    0.123144 *  0.222821 *  0.973045 *  -3.73396    1.000000
    206 O1    s    0.780936 *  0.898731 *  0.309302 *  -3.73396    1.000000
    207 O1    s    0.100239 *  0.878876 *  0.636957 *  -3.73396    1.000000
    208 O3    s    0.885491 *  0.786241 *  0.471471 *  -3.33043    1.000000
    209 O1    s    0.219474 *  0.099411 *  0.810078 *  -3.73396    1.000000
    210 O1    s    0.906045 *  0.123160 *  0.132444 *  -3.73396    1.000000
    211 O1    s    0.221394 *  0.119525 *  0.363389 *  -3.73396    1.000000
    212 O1    s    0.903672 *  0.785534 *  0.024213 *  -3.73396    1.000000
    213 O1    s    0.876836 *  0.095907 *  0.701309 *  -3.73396    1.000000
    214 O1    s    0.778386 *  0.875975 *  0.861175 *  -3.73396    1.000000
    215 O1    s    0.101702 *  0.217802 *  0.523237 *  -3.73396    1.000000
    216 O1    s    0.121067 *  0.899529 *  0.196811 *  -3.73396    1.000000
    217 O1    s    0.944080 *  0.886680 *  0.252859 *  -3.73396    1.000000
    218 O1    s    0.116453 *  0.063850 *  0.582469 *  -3.73396    1.000000
    219 O1    s    0.944447 *  0.055063 *  0.917301 *  -3.73396    1.000000
    220 O1    s    0.076065 *  0.118288 *  0.748557 *  -3.73396    1.000000
    221 O1    s    0.881586 *  0.923001 *  0.086161 *  -3.73396    1.000000
    222 O3    s    0.060446 *  0.939261 *  0.422085 *  -3.33043    1.000000
    223 O1    s    0.909510 *  0.215296 *  0.972404 *  -3.73396    1.000000
    224 O1    s    0.792415 *  0.696561 *  0.310613 *  -3.73396    1.000000
    225 O1    s    0.296581 *  0.096922 *  0.646402 *  -3.73396    1.000000
    226 O3    s    0.081381 *  0.788176 *  0.474891 *  -3.33043    1.000000
    227 O1    s    0.206137 *  0.301491 *  0.811243 *  -3.73396    1.000000
    228 O1    s    0.700481 *  0.908242 *  0.144775 *  -3.73396    1.000000
    229 O1    s    0.215983 *  0.908178 *  0.360665 *  -3.73396    1.000000
    230 O1    s    0.698452 *  0.794817 *  0.022821 *  -3.73396    1.000000
    231 O1    s    0.093896 *  0.299200 *  0.688118 *  -3.73396    1.000000
    232 O1    s    0.785010 *  0.088911 *  0.861141 *  -3.73396    1.000000
    233 O1    s    0.302339 *  0.204746 *  0.522405 *  -3.73396    1.000000
    234 O1    s    0.903855 *  0.703278 *  0.188317 *  -3.73396    1.000000
    235 O1    s    0.318654 *  0.641521 *  0.250493 *  -3.73396    1.000000
    236 O1    s    0.356857 *  0.684371 *  0.581796 *  -3.73396    1.000000
    237 O1    s    0.318482 *  0.681641 *  0.916484 *  -3.73396    1.000000
    238 O1    s    0.683549 *  0.358090 *  0.751578 *  -3.73396    1.000000
    239 O1    s    0.645057 *  0.321218 *  0.083191 *  -3.73396    1.000000
    240 O1    s    0.681498 *  0.319206 *  0.417058 *  -3.73396    1.000000
    241 O1    s    0.370336 *  0.331870 *  0.964434 *  -3.73396    1.000000
    242 O1    s    0.673257 *  0.041687 *  0.298178 *  -3.73396    1.000000
[...]
   198  O1    s     0.801039    0.389636    0.498176    0.000000
   199  O1    s     0.584832    0.348379    0.999134    0.000000
   200  O1    s     0.779261    0.449288    0.665167    0.000000
   201  O1    s     0.685975    0.256456    0.332512    0.000000
   202  O1    s     0.450836    0.692555    0.498143    0.000000
   203  O1    s     0.254758    0.586615    0.165828    0.000000
   204  O1    s     0.346366    0.779452    0.832153    0.000000
   205  O1    s     0.119240    0.217034    0.977373    0.000000
   206  O1    s     0.817938    0.923189    0.310833    0.000000
   207  O1    s     0.113863    0.915283    0.643948    0.000000
   208  O3    s     0.925245    0.827243    0.475816    0.000000
   209  O1    s     0.214759    0.113385    0.810119    0.000000
   210  O1    s     0.920516    0.121944    0.144217    0.000000
   211  O1    s     0.250828    0.152133    0.366800    0.000000
   212  O1    s     0.917513    0.783922    0.031567    0.000000
   213  O1    s     0.880976    0.117222    0.697941    0.000000
   214  O1    s     0.781594    0.882592    0.864865    0.000000
   215  O1    s     0.117350    0.252438    0.528666    0.000000
   216  O1    s     0.153921    0.919518    0.197802    0.000000
   217  O1    s     0.952079    0.891565    0.246611    0.000000
   218  O1    s     0.147844    0.079301    0.578072    0.000000
   219  O1    s     0.955871    0.090989    0.911767    0.000000
   220  O1    s     0.088697    0.151421    0.744961    0.000000
   221  O1    s     0.885290    0.958328    0.078836    0.000000
   222  O3    s     0.080892    0.944004    0.416622    0.000000
   223  O1    s     0.896301    0.189806    0.983335    0.000000
   224  O1    s     0.843473    0.726373    0.315573    0.000000
   225  O1    s     0.308240    0.138281    0.649179    0.000000
   226  O3    s     0.132605    0.853210    0.483503    0.000000
   227  O1    s     0.187667    0.309347    0.816636    0.000000
   228  O1    s     0.725873    0.898093    0.150040    0.000000
   229  O1    s     0.245616    0.936199    0.359001    0.000000
   230  O1    s     0.706438    0.788878    0.025155    0.000000
   231  O1    s     0.098324    0.327752    0.689968    0.000000
   232  O1    s     0.786202    0.098485    0.858035    0.000000
   233  O1    s     0.326415    0.248101    0.524727    0.000000
   234  O1    s     0.936123    0.709932    0.192146    0.000000
   235  O1    s     0.334107    0.657390    0.252399    0.000000
   236  O1    s     0.377602    0.698611    0.584014    0.000000
   237  O1    s     0.339352    0.701622    0.919014    0.000000
   238  O1    s     0.698888    0.378546    0.751827    0.000000
   239  O1    s     0.656079    0.341464    0.085820    0.000000
   240  O1    s     0.694444    0.337373    0.418963    0.000000
   241  O1    s     0.373339    0.353287    0.977826    0.000000
   242  O1    s     0.680697    0.039667    0.311232    0.000000
   243  O1    s     0.995799    0.660562    0.644293    0.000000
   244  O1    s     0.666338    0.691295    0.476762    0.000000
   245  O1    s     0.350852    0.995567    0.810348    0.000000
   246  O1    s     0.037785    0.376023    0.144617    0.000000
[...]
   298  O1    s     0.435158    0.448704    0.843609    0.000000
   299  O1    s     0.029574    0.602526    0.509485    0.000000
   300  O1    s     0.586703    0.006476    0.176967    0.000000
   301  O1    s     0.630662    0.158152    0.247997    0.000000
   302  O1    s     0.878865    0.491849    0.580620    0.000000
   303  O1    s     0.542750    0.404574    0.914591    0.000000
   304  O1    s     0.403045    0.877303    0.747394    0.000000
   305  O1    s     0.156148    0.545651    0.081456    0.000000
   306  O1    s     0.492563    0.632582    0.414567    0.000000
   307  F     s     0.468787    0.874825    0.263030    0.000000
   308  F     s     0.160787    0.613834    0.595384    0.000000
   309  F     s     0.421415    0.566626    0.929823    0.000000
   310  F     s     0.564464    0.161284    0.762583    0.000000
   311  F     s     0.872896    0.423826    0.096641    0.000000
   312  F     s     0.613598    0.472781    0.429924    0.000000

  Final Cartesian lattice vectors (Angstroms) :

       12.626929    0.047925    0.027145
       -6.354986   10.887921   -0.002561
       -0.017008   -0.055183   30.536451

  Final cell parameters and derivatives :

       a           12.627049 Angstrom     dE/de1(xx)     0.000260 eV/strain
       b           12.606851 Angstrom     dE/de2(yy)     0.000285 eV/strain
       c           30.536506 Angstrom     dE/de3(zz)     0.000548 eV/strain
       alpha       90.084975 Degrees      dE/de4(yz)     0.000071 eV/strain
       beta        89.909133 Degrees      dE/de5(xz)     0.000006 eV/strain
       gamma      120.053445 Degrees      dE/de6(xy)    -0.000091 eV/strain

  Primitive cell volume =          4207.495175 Angs**3

  Density of cell =      2.504597 g/cm**3

  Non-primitive cell volume =          4207.495175 Angs**3

  Final internal derivatives :

   No.  Atomic          a             b             c           Radius
        Label          (eV)          (eV)          (eV)        (eV/Angs)
      1 Ge    c       0.000000      0.000000      0.000000      0.000000
      2 Ge    c      -0.000029      0.000029     -0.000038      0.000000
      3 Ge    c      -0.000010      0.000003     -0.000094      0.000000
      4 Ge    c      -0.000002     -0.000009     -0.000068      0.000000
      5 Ge    c       0.000023     -0.000008     -0.000050      0.000000
      6 Ge    c       0.000029      0.000023     -0.000042      0.000000
      7 Ge    c       0.000024      0.000082     -0.000104      0.000000
      8 Ge    c       0.000012     -0.000014      0.000020      0.000000
      9 Ge    c      -0.000009     -0.000010      0.000026      0.000000
     10 Ge    c      -0.000011     -0.000014     -0.000023      0.000000
     11 Ge    c      -0.000025      0.000023      0.000063      0.000000
     12 Ge    c       0.000006     -0.000012      0.000034      0.000000
     13 Ge    c      -0.000028      0.000006      0.000050      0.000000
     14 Ge    c      -0.000018     -0.000018      0.000055      0.000000
     15 Ge    c      -0.000006      0.000004      0.000082      0.000000
     16 Ge    c       0.000029     -0.000018      0.000063      0.000000
     17 Ge    c       0.000015     -0.000003      0.000078      0.000000
     18 Ge    c      -0.000008     -0.000014      0.000031      0.000000
     19 Ge    c       0.000012     -0.000023     -0.000051      0.000000
     20 Ge    c       0.000003     -0.000001     -0.000064      0.000000
     21 Ge    c       0.000016      0.000015      0.000015      0.000000
     22 Ge    c      -0.000022      0.000019     -0.000004      0.000000
     23 Ge    c       0.000015      0.000005     -0.000051      0.000000
     24 Ge    c      -0.000029      0.000012     -0.000037      0.000000
     25 Ge    c       0.000022     -0.000004     -0.000011      0.000000
     26 Ge    c      -0.000023     -0.000010     -0.000013      0.000000
     27 Ge    c       0.000017     -0.000022     -0.000060      0.000000
     28 Ge    c      -0.000011      0.000006     -0.000074      0.000000
     29 Ge    c       0.000010      0.000015     -0.000018      0.000000
     30 Ge    c      -0.000017      0.000036     -0.000008      0.000000
     31 Ge    c       0.000013     -0.000005      0.000071      0.000000
     32 Ge    c       0.000025     -0.000050     -0.000038      0.000000
     33 Ge    c      -0.000012     -0.000015      0.000013      0.000000
     34 Ge    c      -0.000019      0.000006      0.000008      0.000000
     35 Ge    c      -0.000016      0.000026      0.000051      0.000000
     36 Ge    c       0.000036      0.000004     -0.000000      0.000000
     37 Ge    c       0.000004     -0.000024      0.000068      0.000000
     38 Ge    c       0.000003     -0.000025      0.000066      0.000000
     39 Ge    c       0.000003     -0.000025      0.000064      0.000000
     40 Ge    c      -0.000006      0.000010      0.000071      0.000000
     41 Ge    c      -0.000001      0.000009      0.000063      0.000000
     42 Ge    c      -0.000007      0.000007      0.000063      0.000000
     43 Ge    c       0.000003     -0.000009     -0.000064      0.000000
     44 Ge    c       0.000012     -0.000007     -0.000064      0.000000
     45 Ge    c       0.000003     -0.000015     -0.000076      0.000000
     46 Ge    c      -0.000002      0.000021     -0.000079      0.000000
     47 Ge    c      -0.000012      0.000027     -0.000069      0.000000
     48 Ge    c       0.000012      0.000019     -0.000054      0.000000
     49 Ge    c       0.000022     -0.000008      0.000060      0.000000
     50 Ge    c      -0.000021     -0.000024      0.000225      0.000000
     51 Ge    c       0.000020     -0.000008      0.000050      0.000000
     52 Si    c      -0.000016     -0.000014      0.000013      0.000000
     53 Ge    c      -0.000007     -0.000010      0.000080      0.000000
     54 Ge    c      -0.000018      0.000003      0.000099      0.000000
     55 Ge    c       0.000003      0.000009      0.000136      0.000000
     56 Ge    c      -0.000012     -0.000014     -0.000078      0.000000
     57 Ge    c      -0.000042      0.000026      0.000006      0.000000
     58 Ge    c      -0.000003     -0.000011     -0.000032      0.000000
     59 Ge    c       0.000023      0.000010     -0.000018      0.000000
     60 Ge    c       0.000028      0.000012     -0.000040      0.000000
[...]
    172 O1    c      -0.000017      0.000006     -0.000003      0.000000
    173 O1    c      -0.000006     -0.000012      0.000003      0.000000
    174 O1    c       0.000009     -0.000022     -0.000072      0.000000
    175 O1    c       0.000031      0.000017     -0.000045      0.000000
    176 O1    c      -0.000042      0.000024     -0.000026      0.000000
    177 O1    c       0.000015     -0.000032     -0.000080      0.000000
    178 O1    c      -0.000017     -0.000017     -0.000095      0.000000
    179 O1    c       0.000037     -0.000021     -0.000023      0.000000
    180 O1    c      -0.000017      0.000044     -0.000011      0.000000
    181 F     c       0.000015     -0.000050      0.000103      0.000000
    182 F     c      -0.000002     -0.000000      0.000004      0.000000
    183 F     c       0.000006     -0.000004     -0.000006      0.000000
    184 F     c      -0.000001     -0.000007     -0.000008      0.000000
    185 F     c      -0.000001     -0.000000      0.000009      0.000000
    186 F     c      -0.000005      0.000004      0.000001      0.000000
    187 O1    s      -0.000003     -0.000006     -0.000001      0.000000
    188 O1    s       0.000041     -0.000000      0.000134      0.000000
    189 O1    s      -0.000007      0.000013      0.000044      0.000000
    190 O3    s       0.000001      0.000002      0.000019      0.000000
    191 O1    s      -0.000016     -0.000004      0.000017      0.000000
    192 O1    s       0.000003      0.000007      0.000022      0.000000
    193 O1    s       0.000012     -0.000003      0.000003      0.000000
    194 O1    s      -0.000012      0.000017      0.000035      0.000000
    195 O1    s       0.000018     -0.000003     -0.000029      0.000000
    196 O1    s      -0.000014     -0.000017     -0.000020      0.000000
    197 O1    s      -0.000011     -0.000004      0.000032      0.000000
    198 O1    s       0.000000      0.000007      0.000000      0.000000
    199 O1    s      -0.000000      0.000011     -0.000007      0.000000
    200 O1    s      -0.000010      0.000008      0.000003      0.000000
    201 O1    s      -0.000025      0.000009      0.000024      0.000000
    202 O1    s       0.000014     -0.000017     -0.000027      0.000000
    203 O1    s      -0.000001      0.000023      0.000043      0.000000
    204 O1    s       0.000014     -0.000012      0.000020      0.000000
    205 O1    s       0.000000     -0.000006      0.000049      0.000000
    206 O1    s      -0.000025      0.000015      0.000023      0.000000
    207 O1    s       0.000014     -0.000017     -0.000000      0.000000
    208 O3    s      -0.000009     -0.000007      0.000030      0.000000
    209 O1    s      -0.000002      0.000006      0.000024      0.000000
    210 O1    s      -0.000005     -0.000000      0.000000      0.000000
    211 O1    s      -0.000003      0.000003     -0.000021      0.000000
    212 O1    s      -0.000011      0.000001     -0.000011      0.000000
    213 O1    s      -0.000013     -0.000002     -0.000019      0.000000
    214 O1    s       0.000009      0.000006     -0.000034      0.000000
    215 O1    s      -0.000001      0.000015      0.000003      0.000000
    216 O1    s       0.000009      0.000010      0.000010      0.000000
    217 O1    s       0.000021     -0.000024      0.000242      0.000000
    218 O1    s       0.000014     -0.000002      0.000036      0.000000
    219 O1    s      -0.000011      0.000004      0.000050      0.000000
    220 O1    s      -0.000007      0.000007      0.000049      0.000000
    221 O1    s      -0.000009     -0.000011      0.000004      0.000000
    222 O3    s      -0.000000      0.000004      0.000053      0.000000
    223 O1    s      -0.000003      0.000016      0.000035      0.000000
    224 O1    s      -0.000004     -0.000019      0.000012      0.000000
    225 O1    s       0.000017     -0.000004      0.000021      0.000000
    226 O3    s      -0.000002     -0.000009     -0.000001      0.000000
    227 O1    s       0.000009     -0.000002      0.000012      0.000000
    228 O1    s      -0.000025      0.000001      0.000021      0.000000
    229 O1    s       0.000018     -0.000008     -0.000045      0.000000
    230 O1    s      -0.000026     -0.000005     -0.000018      0.000000
    231 O1    s      -0.000006      0.000012      0.000006      0.000000
    232 O1    s      -0.000009      0.000006     -0.000003      0.000000
    233 O1    s       0.000014      0.000003      0.000030      0.000000
    234 O1    s       0.000021     -0.000020     -0.000025      0.000000
    235 O1    s       0.000031      0.000044      0.000117      0.000000
    236 O1    s      -0.000026      0.000001     -0.000029      0.000000
    237 O1    s       0.000010     -0.000007     -0.000036      0.000000
    238 O1    s      -0.000001     -0.000014     -0.000076      0.000000
    239 O1    s       0.000022      0.000001      0.000004      0.000000
    240 O1    s      -0.000016      0.000023      0.000000      0.000000
    241 O1    s      -0.000015      0.000001      0.000029      0.000000
    242 O1    s       0.000016     -0.000023      0.000009      0.000000
    243 O1    s      -0.000008     -0.000006      0.000039      0.000000
    244 O1    s       0.000006      0.000007      0.000033      0.000000
    245 O1    s       0.000008     -0.000001      0.000008      0.000000
    246 O1    s      -0.000000     -0.000011      0.000020      0.000000
[...]
    298 O1    s       0.000011     -0.000003     -0.000025      0.000000
    299 O1    s       0.000007      0.000004     -0.000034      0.000000
    300 O1    s      -0.000009      0.000018      0.000002      0.000000
    301 O1    s      -0.000022     -0.000006      0.000021      0.000000
    302 O1    s       0.000017     -0.000009      0.000003      0.000000
    303 O1    s      -0.000005      0.000010      0.000032      0.000000
    304 O1    s       0.000010      0.000007      0.000042      0.000000
    305 O1    s      -0.000013      0.000006      0.000008      0.000000
    306 O1    s       0.000006     -0.000017     -0.000009      0.000000
    307 F     s      -0.000022     -0.000020      0.000019      0.000000
    308 F     s      -0.000001     -0.000002     -0.000036      0.000000
    309 F     s       0.000000     -0.000006     -0.000020      0.000000
    310 F     s       0.000005     -0.000000     -0.000021      0.000000
    311 F     s       0.000004     -0.000001     -0.000035      0.000000
    312 F     s      -0.000003      0.000004     -0.000026      0.000000
  Maximum abs         0.000057      0.000082      0.000414      0.000000

  Time to end of optimisation =     128.7331 seconds

  Timing analysis for GULP :

  Task / Subroutine                                          Time (Seconds)
  Calculation of reciprocal space energy and derivatives          4.3286
  Calculation of real space energy and derivatives               75.0912
  Calculation of three-body energy and derivatives                0.1055
  Global summation overhead                                       0.0001

  Dump file written as 59.3.res
  CIF file written as 59.3.cif

  Job Finished at 01:47.49  6th January    2017