  Job Started  at 23:07.17 17th December   2016

  Number of CPUs =     1

  Total number of configurations input =   1

*  Input for Configuration =   1                                               *

  Formula = Si81O162

  Number of irreducible atoms/shells =     405

  Total number atoms/shells =     405

  Dimensionality = 3               :  Bulk

  Cartesian lattice vectors (Angstroms) :

       14.547930    0.000000    0.000000
       -7.273965   12.598877    0.000000
        0.000000   -0.000006   16.077120

  Cell parameters (Angstroms/Degrees):

  a =      14.5479    alpha =  90.0000
  b =      14.5479    beta  =  90.0000
  c =      16.0771    gamma = 120.0000

  Initial cell volume =        2946.736418 Angs**3

  Temperature of configuration =  0.000     K

  Pressure of configuration =         0.000 GPa

  Fractional coordinates of asymmetric unit :

   No.  Atomic       x           y          z         Charge      Occupancy
        Label      (Frac)      (Frac)     (Frac)        (e)         (Frac)
      1 Si    c    0.156070    0.000000    0.111110     4.00000    1.000000
      2 Si    c    0.155805 *  0.999985 *  0.444449 *   4.00000    1.000000
      3 Si    c    0.155806 *  0.999989 *  0.777774 *   4.00000    1.000000
      4 Si    c    0.155800 *  0.333295 *  0.111114 *   4.00000    1.000000
      5 Si    c    0.155796 *  0.333307 *  0.444439 *   4.00000    1.000000
      6 Si    c    0.155793 *  0.333305 *  0.777786 *   4.00000    1.000000
      7 Si    c    0.155803 *  0.666642 *  0.111118 *   4.00000    1.000000
      8 Si    c    0.155792 *  0.666632 *  0.444456 *   4.00000    1.000000
      9 Si    c    0.155790 *  0.666631 *  0.777762 *   4.00000    1.000000
     10 Si    c    0.489126 *  0.999992 *  0.111112 *   4.00000    1.000000
     11 Si    c    0.489135 *  0.999972 *  0.444454 *   4.00000    1.000000
     12 Si    c    0.489145 *  0.999998 *  0.777767 *   4.00000    1.000000
     13 Si    c    0.489164 *  0.333350 *  0.111104 *   4.00000    1.000000
     14 Si    c    0.489149 *  0.333333 *  0.444463 *   4.00000    1.000000
     15 Si    c    0.489147 *  0.333333 *  0.777760 *   4.00000    1.000000
     16 Si    c    0.489125 *  0.666667 *  0.111113 *   4.00000    1.000000
     17 Si    c    0.489123 *  0.666650 *  0.444448 *   4.00000    1.000000
     18 Si    c    0.489127 *  0.666679 *  0.777787 *   4.00000    1.000000
     19 Si    c    0.822460 *  0.999991 *  0.111111 *   4.00000    1.000000
     20 Si    c    0.822469 *  0.999971 *  0.444431 *   4.00000    1.000000
     21 Si    c    0.822478 *  0.999998 *  0.777794 *   4.00000    1.000000
     22 Si    c    0.822458 *  0.333333 *  0.111110 *   4.00000    1.000000
     23 Si    c    0.822444 *  0.333289 *  0.444436 *   4.00000    1.000000
     24 Si    c    0.822458 *  0.333320 *  0.777774 *   4.00000    1.000000
     25 Si    c    0.822501 *  0.666695 *  0.111108 *   4.00000    1.000000
     26 Si    c    0.822480 *  0.666667 *  0.444436 *   4.00000    1.000000
     27 Si    c    0.822477 *  0.666667 *  0.777784 *   4.00000    1.000000
     28 Si    c    0.001274 *  0.154493 *  0.222226 *   4.00000    1.000000
     29 Si    c    0.001262 *  0.154508 *  0.555551 *   4.00000    1.000000
     30 Si    c    0.001283 *  0.154493 *  0.888927 *   4.00000    1.000000
     31 Si    c    0.001266 *  0.487843 *  0.222225 *   4.00000    1.000000
     32 Si    c    0.001243 *  0.487820 *  0.555553 *   4.00000    1.000000
     33 Si    c    0.001258 *  0.487846 *  0.888893 *   4.00000    1.000000
     34 Si    c    0.001357 *  0.821228 *  0.222192 *   4.00000    1.000000
     35 Si    c    0.001265 *  0.821188 *  0.555560 *   4.00000    1.000000
     36 Si    c    0.001285 *  0.821193 *  0.888890 *   4.00000    1.000000
     37 Si    c    0.334710 *  0.154569 *  0.222257 *   4.00000    1.000000
     38 Si    c    0.334606 *  0.154523 *  0.555555 *   4.00000    1.000000
     39 Si    c    0.334628 *  0.154531 *  0.888862 *   4.00000    1.000000
     40 Si    c    0.334600 *  0.487849 *  0.222221 *   4.00000    1.000000
     41 Si    c    0.334591 *  0.487844 *  0.555553 *   4.00000    1.000000
     42 Si    c    0.334602 *  0.487861 *  0.888885 *   4.00000    1.000000
     43 Si    c    0.334610 *  0.821184 *  0.222228 *   4.00000    1.000000
     44 Si    c    0.334595 *  0.821170 *  0.555554 *   4.00000    1.000000
     45 Si    c    0.334642 *  0.821138 *  0.888842 *   4.00000    1.000000
     46 Si    c    0.667953 *  0.154516 *  0.222223 *   4.00000    1.000000
     47 Si    c    0.667929 *  0.154492 *  0.555560 *   4.00000    1.000000
     48 Si    c    0.667938 *  0.154516 *  0.888888 *   4.00000    1.000000
     49 Si    c    0.667963 *  0.487890 *  0.222220 *   4.00000    1.000000
     50 Si    c    0.667943 *  0.487898 *  0.555564 *   4.00000    1.000000
     51 Si    c    0.667935 *  0.487859 *  0.888887 *   4.00000    1.000000
     52 Si    c    0.667939 *  0.821184 *  0.222218 *   4.00000    1.000000
     53 Si    c    0.667935 *  0.821180 *  0.555552 *   4.00000    1.000000
     54 Si    c    0.667944 *  0.821196 *  0.888896 *   4.00000    1.000000
     55 Si    c    0.180092 *  0.178789 *  0.333333 *   4.00000    1.000000
     56 Si    c    0.180073 *  0.178793 *  0.666667 *   4.00000    1.000000
     57 Si    c    0.180127 *  0.178775 *  0.000023 *   4.00000    1.000000
     58 Si    c    0.180073 *  0.512119 *  0.333333 *   4.00000    1.000000
     59 Si    c    0.180040 *  0.512085 *  0.666667 *   4.00000    1.000000
     60 Si    c    0.180062 *  0.512102 *  0.000005 *   4.00000    1.000000
     61 Si    c    0.180097 *  0.845453 *  0.333357 *   4.00000    1.000000
[...]
    229 O2    c    0.427403 *  0.469975 *  0.258750 *   0.87073    1.000000
    230 O2    c    0.427403 *  0.469988 *  0.592085 *   0.87073    1.000000
    231 O2    c    0.427407 *  0.469991 *  0.925411 *   0.87073    1.000000
    232 O2    c    0.427413 *  0.803304 *  0.258747 *   0.87073    1.000000
    233 O2    c    0.427399 *  0.803305 *  0.592088 *   0.87073    1.000000
    234 O2    c    0.427455 *  0.803291 *  0.925385 *   0.87073    1.000000
    235 O2    c    0.760756 *  0.136626 *  0.258729 *   0.87073    1.000000
    236 O2    c    0.760732 *  0.136626 *  0.592096 *   0.87073    1.000000
    237 O2    c    0.760734 *  0.136636 *  0.925420 *   0.87073    1.000000
    238 O2    c    0.760749 *  0.469994 *  0.258752 *   0.87073    1.000000
    239 O2    c    0.760733 *  0.470006 *  0.592090 *   0.87073    1.000000
    240 O2    c    0.760724 *  0.469971 *  0.925424 *   0.87073    1.000000
    241 O2    c    0.760748 *  0.803313 *  0.258736 *   0.87073    1.000000
    242 O2    c    0.760731 *  0.803306 *  0.592093 *   0.87073    1.000000
    243 O2    c    0.760748 *  0.803316 *  0.925415 *   0.87073    1.000000
    244 O2    s    0.144519 *  0.091915 *  0.070790 *  -2.87073    1.000000
    245 O2    s    0.144320 *  0.091903 *  0.404104 *  -2.87073    1.000000
    246 O2    s    0.144312 *  0.091904 *  0.737434 *  -2.87073    1.000000
    247 O2    s    0.144296 *  0.425203 *  0.070765 *  -2.87073    1.000000
    248 O2    s    0.144305 *  0.425225 *  0.404099 *  -2.87073    1.000000
    249 O2    s    0.144281 *  0.425209 *  0.737441 *  -2.87073    1.000000
    250 O2    s    0.144330 *  0.758556 *  0.070752 *  -2.87073    1.000000
    251 O2    s    0.144323 *  0.758569 *  0.404130 *  -2.87073    1.000000
    252 O2    s    0.144312 *  0.758565 *  0.737439 *  -2.87073    1.000000
    253 O2    s    0.477640 *  0.091911 *  0.070768 *  -2.87073    1.000000
    254 O2    s    0.477689 *  0.091926 *  0.404133 *  -2.87073    1.000000
    255 O2    s    0.477648 *  0.091917 *  0.737438 *  -2.87073    1.000000
    256 O2    s    0.477652 *  0.425254 *  0.070763 *  -2.87073    1.000000
    257 O2    s    0.477640 *  0.425236 *  0.404098 *  -2.87073    1.000000
    258 O2    s    0.477652 *  0.425258 *  0.737428 *  -2.87073    1.000000
    259 O2    s    0.477636 *  0.758576 *  0.070773 *  -2.87073    1.000000
    260 O2    s    0.477641 *  0.758571 *  0.404106 *  -2.87073    1.000000
    261 O2    s    0.477647 *  0.758603 *  0.737445 *  -2.87073    1.000000
    262 O2    s    0.810970 *  0.091914 *  0.070779 *  -2.87073    1.000000
    263 O2    s    0.810972 *  0.091886 *  0.404093 *  -2.87073    1.000000
    264 O2    s    0.810995 *  0.091921 *  0.737454 *  -2.87073    1.000000
    265 O2    s    0.810970 *  0.425247 *  0.070775 *  -2.87073    1.000000
    266 O2    s    0.810956 *  0.425209 *  0.404097 *  -2.87073    1.000000
    267 O2    s    0.810964 *  0.425237 *  0.737434 *  -2.87073    1.000000
    268 O2    s    0.811009 *  0.758612 *  0.070768 *  -2.87073    1.000000
    269 O2    s    0.811030 *  0.758594 *  0.404067 *  -2.87073    1.000000
    270 O2    s    0.810984 *  0.758581 *  0.737443 *  -2.87073    1.000000
    271 O2    s    0.242881 *  0.051104 *  0.181904 *  -2.87073    1.000000
    272 O2    s    0.242683 *  0.051108 *  0.515227 *  -2.87073    1.000000
    273 O2    s    0.242690 *  0.051112 *  0.848547 *  -2.87073    1.000000
    274 O2    s    0.242676 *  0.384433 *  0.181894 *  -2.87073    1.000000
    275 O2    s    0.242678 *  0.384429 *  0.515216 *  -2.87073    1.000000
    276 O2    s    0.242689 *  0.384446 *  0.848549 *  -2.87073    1.000000
    277 O2    s    0.242683 *  0.717771 *  0.181895 *  -2.87073    1.000000
    278 O2    s    0.242677 *  0.717749 *  0.515230 *  -2.87073    1.000000
    279 O2    s    0.242709 *  0.717733 *  0.848515 *  -2.87073    1.000000
    280 O2    s    0.576010 *  0.051115 *  0.181892 *  -2.87073    1.000000
    281 O2    s    0.576009 *  0.051071 *  0.515237 *  -2.87073    1.000000
    282 O2    s    0.576014 *  0.051106 *  0.848552 *  -2.87073    1.000000
    283 O2    s    0.576055 *  0.384483 *  0.181872 *  -2.87073    1.000000
    284 O2    s    0.576004 *  0.384479 *  0.515252 *  -2.87073    1.000000
    285 O2    s    0.576012 *  0.384451 *  0.848549 *  -2.87073    1.000000
    286 O2    s    0.576008 *  0.717773 *  0.181889 *  -2.87073    1.000000
    287 O2    s    0.576007 *  0.717766 *  0.515225 *  -2.87073    1.000000
    288 O2    s    0.576013 *  0.717789 *  0.848561 *  -2.87073    1.000000
    289 O2    s    0.909342 *  0.051089 *  0.181891 *  -2.87073    1.000000
    290 O2    s    0.909341 *  0.051095 *  0.515216 *  -2.87073    1.000000
    291 O2    s    0.909354 *  0.051093 *  0.848578 *  -2.87073    1.000000
    292 O2    s    0.909342 *  0.384438 *  0.181886 *  -2.87073    1.000000
    293 O2    s    0.909317 *  0.384413 *  0.515219 *  -2.87073    1.000000
    294 O2    s    0.909336 *  0.384439 *  0.848554 *  -2.87073    1.000000
    295 O2    s    0.909408 *  0.717826 *  0.181861 *  -2.87073    1.000000
    296 O2    s    0.909342 *  0.717779 *  0.515227 *  -2.87073    1.000000
    297 O2    s    0.909357 *  0.717780 *  0.848562 *  -2.87073    1.000000
    298 O2    s    0.283517 *  0.190288 *  0.293001 *  -2.87073    1.000000
    299 O2    s    0.283487 *  0.190300 *  0.626319 *  -2.87073    1.000000
    300 O2    s    0.283535 *  0.190335 *  0.959622 *  -2.87073    1.000000
[...]
   254  O2    s     0.476591    0.089223    0.402003    0.000000
   255  O2    s     0.476590    0.089224    0.735336    0.000000
   256  O2    s     0.476590    0.422557    0.068668    0.000000
   257  O2    s     0.476590    0.422557    0.402002    0.000000
   258  O2    s     0.476590    0.422557    0.735335    0.000000
   259  O2    s     0.476590    0.755891    0.068669    0.000000
   260  O2    s     0.476590    0.755890    0.402002    0.000000
   261  O2    s     0.476590    0.755891    0.735336    0.000000
   262  O2    s     0.809923    0.089224    0.068669    0.000000
   263  O2    s     0.809923    0.089223    0.402002    0.000000
   264  O2    s     0.809923    0.089224    0.735336    0.000000
   265  O2    s     0.809923    0.422557    0.068669    0.000000
   266  O2    s     0.809923    0.422556    0.402002    0.000000
   267  O2    s     0.809923    0.422557    0.735335    0.000000
   268  O2    s     0.809924    0.755891    0.068669    0.000000
   269  O2    s     0.809924    0.755890    0.402001    0.000000
   270  O2    s     0.809923    0.755891    0.735336    0.000000
   271  O2    s     0.243607    0.054536    0.179779    0.000000
   272  O2    s     0.243605    0.054535    0.513113    0.000000
   273  O2    s     0.243605    0.054536    0.846446    0.000000
   274  O2    s     0.243605    0.387869    0.179779    0.000000
   275  O2    s     0.243605    0.387868    0.513112    0.000000
   276  O2    s     0.243605    0.387869    0.846446    0.000000
   277  O2    s     0.243605    0.721202    0.179779    0.000000
   278  O2    s     0.243604    0.721201    0.513113    0.000000
   279  O2    s     0.243605    0.721201    0.846446    0.000000
   280  O2    s     0.576938    0.054535    0.179779    0.000000
   281  O2    s     0.576938    0.054534    0.513113    0.000000
   282  O2    s     0.576938    0.054535    0.846446    0.000000
   283  O2    s     0.576939    0.387870    0.179779    0.000000
   284  O2    s     0.576938    0.387869    0.513113    0.000000
   285  O2    s     0.576938    0.387869    0.846446    0.000000
   286  O2    s     0.576938    0.721202    0.179779    0.000000
   287  O2    s     0.576938    0.721201    0.513113    0.000000
   288  O2    s     0.576938    0.721202    0.846446    0.000000
   289  O2    s     0.910272    0.054535    0.179779    0.000000
   290  O2    s     0.910271    0.054535    0.513113    0.000000
   291  O2    s     0.910271    0.054535    0.846446    0.000000
   292  O2    s     0.910272    0.387869    0.179779    0.000000
   293  O2    s     0.910271    0.387867    0.513113    0.000000
   294  O2    s     0.910271    0.387868    0.846446    0.000000
   295  O2    s     0.910273    0.721203    0.179779    0.000000
   296  O2    s     0.910271    0.721202    0.513113    0.000000
   297  O2    s     0.910272    0.721202    0.846446    0.000000
   298  O2    s     0.278293    0.189571    0.290891    0.000000
   299  O2    s     0.278293    0.189571    0.624224    0.000000
   300  O2    s     0.278293    0.189572    0.957557    0.000000
   301  O2    s     0.278293    0.522904    0.290891    0.000000
   302  O2    s     0.278292    0.522903    0.624224    0.000000
   303  O2    s     0.278292    0.522904    0.957558    0.000000
[...]
   391  O2    s     0.422054    0.477093    0.264662    0.000000
   392  O2    s     0.422054    0.477093    0.597996    0.000000
   393  O2    s     0.422054    0.477093    0.931329    0.000000
   394  O2    s     0.422054    0.810426    0.264662    0.000000
   395  O2    s     0.422053    0.810426    0.597996    0.000000
   396  O2    s     0.422054    0.810426    0.931329    0.000000
   397  O2    s     0.755388    0.143759    0.264662    0.000000
   398  O2    s     0.755387    0.143759    0.597996    0.000000
   399  O2    s     0.755387    0.143759    0.931329    0.000000
   400  O2    s     0.755388    0.477093    0.264662    0.000000
   401  O2    s     0.755387    0.477093    0.597996    0.000000
   402  O2    s     0.755387    0.477093    0.931329    0.000000
   403  O2    s     0.755387    0.810426    0.264662    0.000000
   404  O2    s     0.755387    0.810426    0.597996    0.000000
   405  O2    s     0.755387    0.810427    0.931329    0.000000

  Final Cartesian lattice vectors (Angstroms) :

       14.710046    0.000017    0.000012
       -7.355008   12.739271   -0.000005
        0.000013   -0.000005   16.245208

  Final cell parameters and derivatives :

       a           14.710046 Angstrom     dE/de1(xx)     0.002237 eV/strain
       b           14.710036 Angstrom     dE/de2(yy)     0.002428 eV/strain
       c           16.245208 Angstrom     dE/de3(zz)     0.002461 eV/strain
       alpha       90.000058 Degrees      dE/de4(yz)     0.000046 eV/strain
       beta        89.999907 Degrees      dE/de5(xz)     0.000079 eV/strain
       gamma      119.999887 Degrees      dE/de6(xy)     0.000160 eV/strain

  Primitive cell volume =          3044.277062 Angs**3

  Density of cell =      2.654967 g/cm**3

  Non-primitive cell volume =          3044.277062 Angs**3

  Final internal derivatives :

   No.  Atomic          a             b             c           Radius
        Label          (eV)          (eV)          (eV)        (eV/Angs)
      1 Si    c       0.000000      0.000000      0.000000      0.000000
      2 Si    c       0.000634     -0.000342      0.000352      0.000000
      3 Si    c       0.000653     -0.000350      0.000637      0.000000
      4 Si    c       0.000683     -0.000778      0.000721      0.000000
      5 Si    c       0.000828     -0.000613      0.000009      0.000000
      6 Si    c       0.000999     -0.000650      0.000216      0.000000
      7 Si    c       0.000907     -0.000030      0.000907      0.000000
      8 Si    c       0.000727     -0.000439     -0.000154      0.000000
      9 Si    c       0.000823     -0.000277      0.000130      0.000000
     10 Si    c       0.000958     -0.000325      0.000687      0.000000
     11 Si    c       0.000805     -0.000497     -0.000216      0.000000
     12 Si    c       0.000894     -0.000251      0.000540      0.000000
     13 Si    c       0.000906     -0.000679      0.000505      0.000000
     14 Si    c       0.000752     -0.000581      0.000508      0.000000
     15 Si    c       0.000694     -0.000314      0.000651      0.000000
     16 Si    c       0.000826     -0.000491      0.000733      0.000000
     17 Si    c       0.000911     -0.000571      0.000314      0.000000
     18 Si    c       0.001074     -0.000491      0.000674      0.000000
     19 Si    c       0.001054     -0.000478      0.000625      0.000000
     20 Si    c       0.001047     -0.000578     -0.000029      0.000000
     21 Si    c       0.000998     -0.000580      0.000529      0.000000
     22 Si    c       0.000789     -0.000155      0.000505      0.000000
     23 Si    c       0.001056     -0.000722     -0.000336      0.000000
     24 Si    c       0.000887     -0.000393      0.000253      0.000000
     25 Si    c       0.000685      0.000349      0.000659      0.000000
     26 Si    c       0.000860     -0.000494      0.000311      0.000000
     27 Si    c       0.000712     -0.000300      0.000613      0.000000
     28 Si    c      -0.000038      0.000652     -0.000682      0.000000
     29 Si    c      -0.000357      0.000839      0.000090      0.000000
     30 Si    c      -0.000160      0.000785      0.000066      0.000000
     31 Si    c      -0.000336      0.000718     -0.000404      0.000000
     32 Si    c      -0.000678      0.000788      0.000193      0.000000
     33 Si    c      -0.000502      0.000918     -0.000093      0.000000
     34 Si    c       0.000049      0.000871     -0.001254      0.000000
     35 Si    c      -0.000540      0.000705     -0.000131      0.000000
     36 Si    c      -0.000516      0.000620     -0.000166      0.000000
     37 Si    c      -0.000061      0.000717     -0.000683      0.000000
     38 Si    c      -0.000321      0.000689     -0.000289      0.000000
     39 Si    c      -0.000605      0.000873     -0.000674      0.000000
     40 Si    c      -0.000019      0.000678     -0.000491      0.000000
     41 Si    c      -0.000264      0.000716      0.000006      0.000000
     42 Si    c      -0.000203      0.000685      0.000051      0.000000
     43 Si    c      -0.000432      0.000809     -0.000409      0.000000
     44 Si    c      -0.000664      0.000829      0.000093      0.000000
     45 Si    c      -0.000487      0.000749     -0.000391      0.000000
     46 Si    c      -0.000539      0.000965     -0.000390      0.000000
     47 Si    c      -0.000652      0.000927      0.000226      0.000000
     48 Si    c      -0.000477      0.000881     -0.000314      0.000000
     49 Si    c      -0.000165      0.000845     -0.000735      0.000000
     50 Si    c      -0.000461      0.000612      0.000038      0.000000
     51 Si    c      -0.000438      0.000663     -0.000206      0.000000
     52 Si    c      -0.000580      0.000806     -0.000614      0.000000
     53 Si    c      -0.000458      0.000809      0.000136      0.000000
     54 Si    c      -0.000139      0.000607      0.000081      0.000000
     55 Si    c      -0.000698     -0.000307     -0.000059      0.000000
     56 Si    c      -0.000712     -0.000335     -0.000430      0.000000
     57 Si    c      -0.000355     -0.000831     -0.000082      0.000000
     58 Si    c      -0.000430     -0.000593      0.000036      0.000000
     59 Si    c      -0.000651     -0.000352     -0.000418      0.000000
     60 Si    c      -0.000705     -0.000357     -0.000144      0.000000
[...]
    229 O2    c       0.000779     -0.000627      0.000665      0.000000
    230 O2    c       0.001209     -0.000845      0.001041      0.000000
    231 O2    c       0.000692     -0.000637      0.000554      0.000000
    232 O2    c       0.000766     -0.000650      0.000633      0.000000
    233 O2    c       0.001277     -0.000776      0.001227      0.000000
    234 O2    c       0.001600     -0.000975      0.001422      0.000000
    235 O2    c       0.000533     -0.000534      0.000350      0.000000
    236 O2    c       0.000973     -0.000681      0.000938      0.000000
    237 O2    c       0.001585     -0.000985      0.001405      0.000000
    238 O2    c       0.000639     -0.000669      0.000609      0.000000
    239 O2    c       0.000697     -0.000746      0.000531      0.000000
    240 O2    c       0.001116     -0.000872      0.000877      0.000000
    241 O2    c       0.001114     -0.000815      0.000683      0.000000
    242 O2    c       0.000969     -0.000786      0.000803      0.000000
    243 O2    c       0.000727     -0.000662      0.000439      0.000000
    244 O2    s       0.000252      0.000035      0.000357      0.000000
    245 O2    s       0.000341      0.000101      0.000351      0.000000
    246 O2    s       0.000478     -0.000027      0.000315      0.000000
    247 O2    s       0.000561     -0.000367      0.000136      0.000000
    248 O2    s       0.000653     -0.000175      0.000366      0.000000
    249 O2    s       0.000523     -0.000043      0.000422      0.000000
    250 O2    s       0.000545     -0.000352      0.000194      0.000000
    251 O2    s       0.000769     -0.000257      0.000322      0.000000
    252 O2    s       0.000725     -0.000197      0.000175      0.000000
    253 O2    s       0.000717     -0.000368      0.000188      0.000000
    254 O2    s       0.000646     -0.000416      0.000289      0.000000
    255 O2    s       0.000590     -0.000332      0.000315      0.000000
    256 O2    s       0.000605     -0.000162      0.000029      0.000000
    257 O2    s       0.000482     -0.000177      0.000403      0.000000
    258 O2    s       0.000413     -0.000053      0.000084      0.000000
    259 O2    s       0.000518     -0.000104      0.000135      0.000000
    260 O2    s       0.000558     -0.000231      0.000646      0.000000
    261 O2    s       0.000349     -0.000079      0.000389      0.000000
    262 O2    s       0.000428     -0.000224      0.000214      0.000000
    263 O2    s       0.000675     -0.000218      0.000619      0.000000
    264 O2    s       0.000485     -0.000120      0.000490      0.000000
    265 O2    s       0.000523     -0.000063      0.000041      0.000000
    266 O2    s       0.000900     -0.000394      0.000199      0.000000
    267 O2    s       0.000736     -0.000343      0.000266      0.000000
    268 O2    s       0.000393      0.000161      0.000229      0.000000
    269 O2    s       0.000663     -0.000078      0.000491      0.000000
    270 O2    s       0.000537     -0.000057      0.000306      0.000000
    271 O2    s      -0.000341      0.000502      0.000579      0.000000
    272 O2    s      -0.000437      0.000601     -0.000046      0.000000
    273 O2    s      -0.000488      0.000580      0.000112      0.000000
    274 O2    s      -0.000230      0.000488     -0.000005      0.000000
    275 O2    s      -0.000254      0.000512     -0.000020      0.000000
    276 O2    s      -0.000279      0.000502      0.000172      0.000000
    277 O2    s      -0.000153      0.000731      0.000395      0.000000
    278 O2    s      -0.000315      0.000522     -0.000258      0.000000
    279 O2    s      -0.000371      0.000685     -0.000163      0.000000
    280 O2    s      -0.000101      0.000581      0.000390      0.000000
    281 O2    s      -0.000180      0.000409     -0.000071      0.000000
    282 O2    s      -0.000335      0.000619      0.000138      0.000000
    283 O2    s      -0.000481      0.000812      0.000347      0.000000
    284 O2    s      -0.000379      0.000499      0.000257      0.000000
    285 O2    s      -0.000485      0.000524      0.000257      0.000000
    286 O2    s      -0.000392      0.000638      0.000215      0.000000
    287 O2    s      -0.000192      0.000570      0.000080      0.000000
    288 O2    s      -0.000168      0.000703      0.000039      0.000000
    289 O2    s      -0.000327      0.000486      0.000075      0.000000
    290 O2    s      -0.000285      0.000584      0.000142      0.000000
    291 O2    s      -0.000042      0.000629      0.000190      0.000000
    292 O2    s      -0.000364      0.000596      0.000270      0.000000
    293 O2    s      -0.000395      0.000472      0.000110      0.000000
    294 O2    s      -0.000326      0.000557      0.000122      0.000000
    295 O2    s      -0.000589      0.000885      0.000092      0.000000
    296 O2    s      -0.000506      0.000670      0.000069      0.000000
    297 O2    s      -0.000421      0.000731      0.000076      0.000000
    298 O2    s      -0.000364     -0.000209      0.000186      0.000000
    299 O2    s      -0.000480     -0.000293      0.000443      0.000000
    300 O2    s      -0.000310     -0.000287      0.000496      0.000000
    301 O2    s      -0.000267     -0.000386      0.000270      0.000000
    302 O2    s      -0.000435     -0.000420      0.000738      0.000000
    303 O2    s      -0.000395     -0.000308      0.000781      0.000000
[...]
    391 O2    s      -0.000078      0.000550     -0.000127      0.000000
    392 O2    s      -0.000188      0.000685     -0.000302      0.000000
    393 O2    s      -0.000204      0.000764     -0.000188      0.000000
    394 O2    s      -0.000144      0.000529     -0.000088      0.000000
    395 O2    s      -0.000160      0.000433     -0.000287      0.000000
    396 O2    s      -0.000259      0.000422     -0.000454      0.000000
    397 O2    s      -0.000282      0.000520     -0.000077      0.000000
    398 O2    s      -0.000147      0.000462     -0.000340      0.000000
    399 O2    s      -0.000231      0.000528     -0.000328      0.000000
    400 O2    s       0.000042      0.000397     -0.000214      0.000000
    401 O2    s      -0.000047      0.000623     -0.000347      0.000000
    402 O2    s       0.000006      0.000491     -0.000021      0.000000
    403 O2    s      -0.000280      0.000455      0.000170      0.000000
    404 O2    s      -0.000269      0.000664     -0.000330      0.000000
    405 O2    s      -0.000229      0.000661      0.000049      0.000000
  Maximum abs         0.001600      0.001402      0.001434      0.000000

  Time to end of optimisation =      28.6173 seconds

  Timing analysis for GULP :

  Task / Subroutine                                          Time (Seconds)
  Calculation of reciprocal space energy and derivatives          0.5162
  Calculation of real space energy and derivatives               10.4379
  Calculation of three-body energy and derivatives                1.7129

  Dump file written as out.res
  CIF file written as out.cif

  Job Finished at 23:07.46 17th December   2016