  Job Started  at 23:06.41 17th December   2016

  Number of CPUs =     1

  Total number of configurations input =   1

*  Input for Configuration =   1                                               *

  Formula = Ge81O162

  Number of irreducible atoms/shells =     405

  Total number atoms/shells =     405

  Dimensionality = 3               :  Bulk

  Cartesian lattice vectors (Angstroms) :

       14.956396    0.000000    0.000000
       -7.478318   12.950953    0.000000
        0.001665    0.002113   16.973460

  Cell parameters (Angstroms/Degrees):

  a =      14.9564    alpha =  89.9966
  b =      14.9550    beta  =  89.9944
  c =      16.9735    gamma = 120.0036

  Initial cell volume =        3287.752031 Angs**3

  Temperature of configuration =  0.000     K

  Pressure of configuration =         0.000 GPa

  Fractional coordinates of asymmetric unit :

   No.  Atomic       x           y          z         Charge      Occupancy
        Label      (Frac)      (Frac)     (Frac)        (e)         (Frac)
      1 Ge    c    0.156070    0.000000    0.111110     4.00000    1.000000
      2 Ge    c    0.153931 *  0.998744 *  0.444448 *   4.00000    1.000000
      3 Ge    c    0.153998 *  0.999078 *  0.777733 *   4.00000    1.000000
      4 Ge    c    0.154061 *  0.332399 *  0.111094 *   4.00000    1.000000
      5 Ge    c    0.153724 *  0.331962 *  0.444407 *   4.00000    1.000000
      6 Ge    c    0.153786 *  0.332261 *  0.777756 *   4.00000    1.000000
      7 Ge    c    0.154071 *  0.665833 *  0.111142 *   4.00000    1.000000
      8 Ge    c    0.153711 *  0.665249 *  0.444416 *   4.00000    1.000000
      9 Ge    c    0.153789 *  0.665546 *  0.777718 *   4.00000    1.000000
     10 Ge    c    0.487429 *  0.999177 *  0.111144 *   4.00000    1.000000
     11 Ge    c    0.487179 *  0.998512 *  0.444512 *   4.00000    1.000000
     12 Ge    c    0.487253 *  0.999007 *  0.777731 *   4.00000    1.000000
     13 Ge    c    0.487771 *  0.332805 *  0.111018 *   4.00000    1.000000
     14 Ge    c    0.487234 *  0.332157 *  0.444501 *   4.00000    1.000000
     15 Ge    c    0.487278 *  0.332432 *  0.777672 *   4.00000    1.000000
     16 Ge    c    0.487337 *  0.665851 *  0.111128 *   4.00000    1.000000
     17 Ge    c    0.487096 *  0.665348 *  0.444439 *   4.00000    1.000000
     18 Ge    c    0.487195 *  0.665761 *  0.777835 *   4.00000    1.000000
     19 Ge    c    0.820762 *  0.999175 *  0.111110 *   4.00000    1.000000
     20 Ge    c    0.820498 *  0.998489 *  0.444290 *   4.00000    1.000000
     21 Ge    c    0.820599 *  0.999025 *  0.777837 *   4.00000    1.000000
     22 Ge    c    0.820665 *  0.332496 *  0.111083 *   4.00000    1.000000
     23 Ge    c    0.820428 *  0.331794 *  0.444325 *   4.00000    1.000000
     24 Ge    c    0.820492 *  0.332266 *  0.777735 *   4.00000    1.000000
     25 Ge    c    0.821118 *  0.666243 *  0.111103 *   4.00000    1.000000
     26 Ge    c    0.820542 *  0.665426 *  0.444406 *   4.00000    1.000000
     27 Ge    c    0.820632 *  0.665741 *  0.777788 *   4.00000    1.000000
     28 Ge    c    0.004834 *  0.148297 *  0.222193 *   4.00000    1.000000
     29 Ge    c    0.004141 *  0.148103 *  0.555511 *   4.00000    1.000000
     30 Ge    c    0.004441 *  0.148418 *  0.889001 *   4.00000    1.000000
     31 Ge    c    0.004663 *  0.481783 *  0.222189 *   4.00000    1.000000
     32 Ge    c    0.004081 *  0.481421 *  0.555524 *   4.00000    1.000000
     33 Ge    c    0.004284 *  0.481694 *  0.888906 *   4.00000    1.000000
     34 Ge    c    0.005519 *  0.815881 *  0.221829 *   4.00000    1.000000
     35 Ge    c    0.004257 *  0.814958 *  0.555553 *   4.00000    1.000000
     36 Ge    c    0.004563 *  0.815176 *  0.888837 *   4.00000    1.000000
     37 Ge    c    0.339038 *  0.149202 *  0.222560 *   4.00000    1.000000
     38 Ge    c    0.337641 *  0.148295 *  0.555581 *   4.00000    1.000000
     39 Ge    c    0.337949 *  0.148513 *  0.888776 *   4.00000    1.000000
     40 Ge    c    0.337986 *  0.481798 *  0.222196 *   4.00000    1.000000
     41 Ge    c    0.337478 *  0.481542 *  0.555535 *   4.00000    1.000000
     42 Ge    c    0.337625 *  0.481810 *  0.888868 *   4.00000    1.000000
     43 Ge    c    0.338064 *  0.815155 *  0.222229 *   4.00000    1.000000
     44 Ge    c    0.337451 *  0.814736 *  0.555575 *   4.00000    1.000000
     45 Ge    c    0.337876 *  0.814907 *  0.888704 *   4.00000    1.000000
     46 Ge    c    0.671496 *  0.148465 *  0.222212 *   4.00000    1.000000
     47 Ge    c    0.670880 *  0.148099 *  0.555566 *   4.00000    1.000000
     48 Ge    c    0.671075 *  0.148374 *  0.888872 *   4.00000    1.000000
     49 Ge    c    0.671637 *  0.482198 *  0.222194 *   4.00000    1.000000
     50 Ge    c    0.670936 *  0.481757 *  0.555618 *   4.00000    1.000000
     51 Ge    c    0.671060 *  0.481832 *  0.888867 *   4.00000    1.000000
     52 Ge    c    0.671406 *  0.815139 *  0.222183 *   4.00000    1.000000
     53 Ge    c    0.670875 *  0.814882 *  0.555552 *   4.00000    1.000000
     54 Ge    c    0.671104 *  0.815154 *  0.888937 *   4.00000    1.000000
     55 Ge    c    0.188644 *  0.182788 *  0.333349 *   4.00000    1.000000
     56 Ge    c    0.188156 *  0.182838 *  0.666582 *   4.00000    1.000000
     57 Ge    c    0.188673 *  0.183182 *  0.999920 *   4.00000    1.000000
     58 Ge    c    0.188360 *  0.515936 *  0.333308 *   4.00000    1.000000
     59 Ge    c    0.188011 *  0.516010 *  0.666587 *   4.00000    1.000000
     60 Ge    c    0.188149 *  0.516156 *  0.000018 *   4.00000    1.000000
     61 Ge    c    0.188646 *  0.849406 *  0.333423 *   4.00000    1.000000
[...]
    229 O1    c    0.439395 *  0.467658 *  0.253214 *   1.73396    1.000000
    230 O1    c    0.439006 *  0.467635 *  0.586613 *   1.73396    1.000000
    231 O1    c    0.439116 *  0.467807 *  0.919909 *   1.73396    1.000000
    232 O1    c    0.439452 *  0.800931 *  0.253185 *   1.73396    1.000000
    233 O1    c    0.438953 *  0.800778 *  0.586652 *   1.73396    1.000000
    234 O1    c    0.439354 *  0.800958 *  0.919846 *   1.73396    1.000000
    235 O1    c    0.772861 *  0.134193 *  0.253116 *   1.73396    1.000000
    236 O1    c    0.772367 *  0.134143 *  0.586656 *   1.73396    1.000000
    237 O1    c    0.772476 *  0.134277 *  0.919984 *   1.73396    1.000000
    238 O1    c    0.772920 *  0.467882 *  0.253214 *   1.73396    1.000000
    239 O1    c    0.772351 *  0.467667 *  0.586668 *   1.73396    1.000000
    240 O1    c    0.772442 *  0.467726 *  0.919997 *   1.73396    1.000000
    241 O1    c    0.772757 *  0.800875 *  0.253123 *   1.73396    1.000000
    242 O1    c    0.772331 *  0.800872 *  0.586661 *   1.73396    1.000000
    243 O1    c    0.772577 *  0.801127 *  0.919973 *   1.73396    1.000000
    244 O1    s    0.145555 *  0.099423 *  0.076858 *  -3.73396    1.000000
    245 O1    s    0.144392 *  0.098648 *  0.410073 *  -3.73396    1.000000
    246 O1    s    0.144189 *  0.098824 *  0.743434 *  -3.73396    1.000000
    247 O1    s    0.144142 *  0.432121 *  0.076842 *  -3.73396    1.000000
    248 O1    s    0.144103 *  0.431820 *  0.410054 *  -3.73396    1.000000
    249 O1    s    0.144002 *  0.432035 *  0.743454 *  -3.73396    1.000000
    250 O1    s    0.144452 *  0.765685 *  0.076772 *  -3.73396    1.000000
    251 O1    s    0.144255 *  0.765223 *  0.410132 *  -3.73396    1.000000
    252 O1    s    0.144102 *  0.765409 *  0.743494 *  -3.73396    1.000000
    253 O1    s    0.477687 *  0.098979 *  0.076827 *  -3.73396    1.000000
    254 O1    s    0.477912 *  0.098669 *  0.410295 *  -3.73396    1.000000
    255 O1    s    0.477536 *  0.098837 *  0.743484 *  -3.73396    1.000000
    256 O1    s    0.477728 *  0.432394 *  0.076714 *  -3.73396    1.000000
    257 O1    s    0.477536 *  0.431909 *  0.410025 *  -3.73396    1.000000
    258 O1    s    0.477464 *  0.432188 *  0.743405 *  -3.73396    1.000000
    259 O1    s    0.477532 *  0.765602 *  0.076814 *  -3.73396    1.000000
    260 O1    s    0.477528 *  0.765228 *  0.410073 *  -3.73396    1.000000
    261 O1    s    0.477481 *  0.765569 *  0.743519 *  -3.73396    1.000000
    262 O1    s    0.810943 *  0.098953 *  0.076862 *  -3.73396    1.000000
    263 O1    s    0.810905 *  0.098397 *  0.409973 *  -3.73396    1.000000
    264 O1    s    0.810849 *  0.098819 *  0.743530 *  -3.73396    1.000000
    265 O1    s    0.810874 *  0.432274 *  0.076813 *  -3.73396    1.000000
    266 O1    s    0.810786 *  0.431667 *  0.409999 *  -3.73396    1.000000
    267 O1    s    0.810745 *  0.432071 *  0.743460 *  -3.73396    1.000000
    268 O1    s    0.811382 *  0.766032 *  0.076782 *  -3.73396    1.000000
    269 O1    s    0.811191 *  0.765356 *  0.409897 *  -3.73396    1.000000
    270 O1    s    0.810896 *  0.765535 *  0.743482 *  -3.73396    1.000000
    271 O1    s    0.239452 *  0.039484 *  0.188002 *  -3.73396    1.000000
    272 O1    s    0.237868 *  0.038727 *  0.521312 *  -3.73396    1.000000
    273 O1    s    0.238048 *  0.039005 *  0.854517 *  -3.73396    1.000000
    274 O1    s    0.238160 *  0.372305 *  0.187834 *  -3.73396    1.000000
    275 O1    s    0.237744 *  0.371970 *  0.521239 *  -3.73396    1.000000
    276 O1    s    0.237905 *  0.372250 *  0.854507 *  -3.73396    1.000000
    277 O1    s    0.238195 *  0.705689 *  0.187856 *  -3.73396    1.000000
    278 O1    s    0.237725 *  0.705198 *  0.521259 *  -3.73396    1.000000
    279 O1    s    0.238014 *  0.705429 *  0.854404 *  -3.73396    1.000000
    280 O1    s    0.571540 *  0.039049 *  0.187900 *  -3.73396    1.000000
    281 O1    s    0.571160 *  0.038464 *  0.521353 *  -3.73396    1.000000
    282 O1    s    0.571275 *  0.038862 *  0.854531 *  -3.73396    1.000000
    283 O1    s    0.571829 *  0.372743 *  0.187772 *  -3.73396    1.000000
    284 O1    s    0.571103 *  0.372200 *  0.521402 *  -3.73396    1.000000
    285 O1    s    0.571260 *  0.372344 *  0.854506 *  -3.73396    1.000000
    286 O1    s    0.571471 *  0.705688 *  0.187833 *  -3.73396    1.000000
    287 O1    s    0.571094 *  0.705308 *  0.521273 *  -3.73396    1.000000
    288 O1    s    0.571311 *  0.705619 *  0.854569 *  -3.73396    1.000000
    289 O1    s    0.904900 *  0.038884 *  0.187838 *  -3.73396    1.000000
    290 O1    s    0.904473 *  0.038528 *  0.521180 *  -3.73396    1.000000
    291 O1    s    0.904663 *  0.038886 *  0.854618 *  -3.73396    1.000000
    292 O1    s    0.904794 *  0.372349 *  0.187810 *  -3.73396    1.000000
    293 O1    s    0.904352 *  0.371863 *  0.521227 *  -3.73396    1.000000
    294 O1    s    0.904514 *  0.372184 *  0.854542 *  -3.73396    1.000000
    295 O1    s    0.905437 *  0.706328 *  0.187615 *  -3.73396    1.000000
    296 O1    s    0.904469 *  0.705416 *  0.521293 *  -3.73396    1.000000
    297 O1    s    0.904742 *  0.705651 *  0.854544 *  -3.73396    1.000000
    298 O1    s    0.298468 *  0.192884 *  0.299192 *  -3.73396    1.000000
    299 O1    s    0.297687 *  0.192556 *  0.632252 *  -3.73396    1.000000
    300 O1    s    0.298154 *  0.192923 *  0.965452 *  -3.73396    1.000000
[...]
   254  O1    s     0.479701    0.099815    0.410123    0.000000
   255  O1    s     0.479701    0.099815    0.743456    0.000000
   256  O1    s     0.479701    0.433149    0.076789    0.000000
   257  O1    s     0.479701    0.433149    0.410123    0.000000
   258  O1    s     0.479701    0.433148    0.743456    0.000000
   259  O1    s     0.479701    0.766482    0.076790    0.000000
   260  O1    s     0.479701    0.766482    0.410123    0.000000
   261  O1    s     0.479701    0.766482    0.743456    0.000000
   262  O1    s     0.813034    0.099815    0.076790    0.000000
   263  O1    s     0.813035    0.099815    0.410123    0.000000
   264  O1    s     0.813034    0.099815    0.743456    0.000000
   265  O1    s     0.813035    0.433149    0.076790    0.000000
   266  O1    s     0.813035    0.433148    0.410123    0.000000
   267  O1    s     0.813034    0.433149    0.743456    0.000000
   268  O1    s     0.813035    0.766482    0.076789    0.000000
   269  O1    s     0.813035    0.766482    0.410123    0.000000
   270  O1    s     0.813034    0.766482    0.743456    0.000000
   271  O1    s     0.240136    0.039934    0.187901    0.000000
   272  O1    s     0.240135    0.039934    0.521234    0.000000
   273  O1    s     0.240135    0.039934    0.854567    0.000000
   274  O1    s     0.240135    0.373267    0.187900    0.000000
   275  O1    s     0.240135    0.373267    0.521234    0.000000
   276  O1    s     0.240135    0.373267    0.854567    0.000000
   277  O1    s     0.240135    0.706601    0.187901    0.000000
   278  O1    s     0.240135    0.706600    0.521234    0.000000
   279  O1    s     0.240135    0.706600    0.854567    0.000000
   280  O1    s     0.573469    0.039934    0.187901    0.000000
   281  O1    s     0.573468    0.039934    0.521234    0.000000
   282  O1    s     0.573468    0.039934    0.854567    0.000000
   283  O1    s     0.573469    0.373267    0.187901    0.000000
   284  O1    s     0.573468    0.373267    0.521234    0.000000
   285  O1    s     0.573468    0.373267    0.854567    0.000000
   286  O1    s     0.573469    0.706601    0.187901    0.000000
   287  O1    s     0.573468    0.706600    0.521234    0.000000
   288  O1    s     0.573468    0.706600    0.854567    0.000000
   289  O1    s     0.906802    0.039934    0.187901    0.000000
   290  O1    s     0.906802    0.039934    0.521234    0.000000
   291  O1    s     0.906802    0.039934    0.854567    0.000000
   292  O1    s     0.906802    0.373267    0.187901    0.000000
   293  O1    s     0.906802    0.373267    0.521234    0.000000
   294  O1    s     0.906802    0.373267    0.854567    0.000000
   295  O1    s     0.906802    0.706601    0.187900    0.000000
   296  O1    s     0.906802    0.706600    0.521234    0.000000
   297  O1    s     0.906802    0.706600    0.854567    0.000000
   298  O1    s     0.300017    0.193583    0.299012    0.000000
   299  O1    s     0.300017    0.193583    0.632345    0.000000
   300  O1    s     0.300016    0.193583    0.965678    0.000000
   301  O1    s     0.300017    0.526916    0.299012    0.000000
   302  O1    s     0.300017    0.526916    0.632345    0.000000
   303  O1    s     0.300016    0.526916    0.965678    0.000000
[...]
   391  O1    s     0.439767    0.473083    0.256541    0.000000
   392  O1    s     0.439767    0.473083    0.589875    0.000000
   393  O1    s     0.439767    0.473083    0.923208    0.000000
   394  O1    s     0.439767    0.806416    0.256541    0.000000
   395  O1    s     0.439767    0.806416    0.589875    0.000000
   396  O1    s     0.439767    0.806416    0.923208    0.000000
   397  O1    s     0.773100    0.139750    0.256541    0.000000
   398  O1    s     0.773100    0.139750    0.589875    0.000000
   399  O1    s     0.773100    0.139750    0.923208    0.000000
   400  O1    s     0.773100    0.473083    0.256541    0.000000
   401  O1    s     0.773100    0.473083    0.589875    0.000000
   402  O1    s     0.773100    0.473083    0.923208    0.000000
   403  O1    s     0.773100    0.806416    0.256541    0.000000
   404  O1    s     0.773100    0.806416    0.589875    0.000000
   405  O1    s     0.773100    0.806416    0.923208    0.000000

  Final Cartesian lattice vectors (Angstroms) :

       14.955179    0.000069   -0.000732
       -7.477650   12.951531   -0.000440
        0.000834    0.001057   16.972785

  Final cell parameters and derivatives :

       a           14.955179 Angstrom     dE/de1(xx)     0.000038 eV/strain
       b           14.955180 Angstrom     dE/de2(yy)     0.000048 eV/strain
       c           16.972785 Angstrom     dE/de3(zz)     0.000100 eV/strain
       alpha       90.000000 Degrees      dE/de4(yz)    -0.000002 eV/strain
       beta        90.000000 Degrees      dE/de5(xz)     0.000008 eV/strain
       gamma      120.000000 Degrees      dE/de6(xy)    -0.000013 eV/strain

  Primitive cell volume =          3287.509422 Angs**3

  Density of cell =      4.280034 g/cm**3

  Non-primitive cell volume =          3287.509422 Angs**3

  Final internal derivatives :

   No.  Atomic          a             b             c           Radius
        Label          (eV)          (eV)          (eV)        (eV/Angs)
      1 Ge    c       0.000000      0.000000      0.000000      0.000000
      2 Ge    c      -0.000027      0.000017      0.000008      0.000000
      3 Ge    c       0.000001      0.000004     -0.000007      0.000000
      4 Ge    c      -0.000034      0.000025      0.000021      0.000000
      5 Ge    c      -0.000002     -0.000006     -0.000006      0.000000
      6 Ge    c      -0.000002     -0.000010      0.000009      0.000000
      7 Ge    c      -0.000004     -0.000014      0.000017      0.000000
      8 Ge    c       0.000005     -0.000008     -0.000007      0.000000
      9 Ge    c      -0.000026      0.000011     -0.000004      0.000000
     10 Ge    c       0.000005     -0.000010      0.000002      0.000000
     11 Ge    c       0.000007     -0.000009     -0.000017      0.000000
     12 Ge    c       0.000011     -0.000007     -0.000003      0.000000
     13 Ge    c      -0.000003     -0.000012      0.000088      0.000000
     14 Ge    c      -0.000055      0.000043      0.000006      0.000000
     15 Ge    c       0.000003     -0.000003      0.000002      0.000000
     16 Ge    c      -0.000016      0.000019     -0.000001      0.000000
     17 Ge    c       0.000006     -0.000001      0.000001      0.000000
     18 Ge    c      -0.000009      0.000011      0.000008      0.000000
     19 Ge    c       0.000004      0.000006      0.000024      0.000000
     20 Ge    c       0.000024     -0.000010     -0.000035      0.000000
     21 Ge    c       0.000003     -0.000004      0.000007      0.000000
     22 Ge    c       0.000011     -0.000002      0.000011      0.000000
     23 Ge    c      -0.000000     -0.000006     -0.000010      0.000000
     24 Ge    c      -0.000001      0.000007      0.000006      0.000000
     25 Ge    c      -0.000018      0.000034      0.000023      0.000000
     26 Ge    c       0.000018      0.000006     -0.000019      0.000000
     27 Ge    c       0.000003     -0.000003     -0.000002      0.000000
     28 Ge    c       0.000012     -0.000005      0.000002      0.000000
     29 Ge    c      -0.000011      0.000005     -0.000003      0.000000
     30 Ge    c       0.000006     -0.000018      0.000016      0.000000
     31 Ge    c       0.000006     -0.000013     -0.000008      0.000000
     32 Ge    c      -0.000013      0.000011      0.000007      0.000000
     33 Ge    c      -0.000009      0.000008      0.000002      0.000000
     34 Ge    c       0.000168     -0.000061     -0.000055      0.000000
     35 Ge    c       0.000004     -0.000006     -0.000003      0.000000
     36 Ge    c       0.000004      0.000009      0.000023      0.000000
     37 Ge    c      -0.000003     -0.000024     -0.000178      0.000000
     38 Ge    c       0.000001     -0.000012      0.000007      0.000000
     39 Ge    c       0.000022     -0.000011     -0.000068      0.000000
     40 Ge    c      -0.000001      0.000004     -0.000006      0.000000
     41 Ge    c      -0.000011      0.000003      0.000013      0.000000
     42 Ge    c      -0.000001     -0.000006      0.000001      0.000000
     43 Ge    c       0.000003      0.000003     -0.000004      0.000000
     44 Ge    c       0.000003     -0.000016      0.000012      0.000000
     45 Ge    c       0.000005      0.000007      0.000009      0.000000
     46 Ge    c      -0.000013      0.000022      0.000046      0.000000
     47 Ge    c       0.000009     -0.000008      0.000018      0.000000
     48 Ge    c       0.000000      0.000005      0.000001      0.000000
     49 Ge    c       0.000034     -0.000021     -0.000061      0.000000
     50 Ge    c       0.000002     -0.000010      0.000007      0.000000
     51 Ge    c       0.000011     -0.000004     -0.000002      0.000000
     52 Ge    c       0.000007      0.000015     -0.000025      0.000000
     53 Ge    c      -0.000008      0.000008      0.000006      0.000000
     54 Ge    c      -0.000023     -0.000006     -0.000000      0.000000
     55 Ge    c      -0.000078     -0.000005      0.000004      0.000000
     56 Ge    c       0.000003      0.000002     -0.000001      0.000000
     57 Ge    c      -0.000208      0.000055     -0.000070      0.000000
     58 Ge    c      -0.000005      0.000008      0.000002      0.000000
     59 Ge    c       0.000013      0.000003     -0.000007      0.000000
     60 Ge    c      -0.000005      0.000001      0.000008      0.000000
[...]
    229 O1    c       0.000002      0.000002     -0.000005      0.000000
    230 O1    c       0.000018     -0.000008      0.000011      0.000000
    231 O1    c      -0.000014      0.000005     -0.000043      0.000000
    232 O1    c       0.000013     -0.000012     -0.000008      0.000000
    233 O1    c      -0.000015      0.000005     -0.000016      0.000000
    234 O1    c       0.000022     -0.000020      0.000012      0.000000
    235 O1    c       0.000001      0.000002     -0.000013      0.000000
    236 O1    c       0.000002     -0.000002      0.000007      0.000000
    237 O1    c       0.000003     -0.000001      0.000004      0.000000
    238 O1    c      -0.000037      0.000029     -0.000100      0.000000
    239 O1    c      -0.000005     -0.000001     -0.000019      0.000000
    240 O1    c      -0.000004      0.000006     -0.000004      0.000000
    241 O1    c       0.000017      0.000010      0.000009      0.000000
    242 O1    c      -0.000004      0.000001     -0.000009      0.000000
    243 O1    c      -0.000072     -0.000047     -0.000085      0.000000
    244 O1    s      -0.000174      0.000049     -0.000099      0.000000
    245 O1    s       0.000002      0.000000     -0.000001      0.000000
    246 O1    s       0.000005     -0.000008     -0.000007      0.000000
    247 O1    s       0.000004      0.000012     -0.000007      0.000000
    248 O1    s       0.000006     -0.000004     -0.000002      0.000000
    249 O1    s       0.000001      0.000001     -0.000009      0.000000
    250 O1    s       0.000054      0.000011     -0.000087      0.000000
    251 O1    s       0.000013     -0.000005     -0.000010      0.000000
    252 O1    s       0.000001      0.000002     -0.000010      0.000000
    253 O1    s      -0.000015      0.000018     -0.000024      0.000000
    254 O1    s      -0.000033      0.000008     -0.000030      0.000000
    255 O1    s      -0.000005      0.000002      0.000007      0.000000
    256 O1    s       0.000006     -0.000028     -0.000044      0.000000
    257 O1    s      -0.000013      0.000002     -0.000017      0.000000
    258 O1    s       0.000003     -0.000002     -0.000000      0.000000
    259 O1    s      -0.000005      0.000008     -0.000003      0.000000
    260 O1    s       0.000008     -0.000007     -0.000005      0.000000
    261 O1    s       0.000001      0.000010     -0.000025      0.000000
    262 O1    s       0.000008     -0.000003     -0.000016      0.000000
    263 O1    s      -0.000008      0.000009      0.000002      0.000000
    264 O1    s       0.000004     -0.000001      0.000003      0.000000
    265 O1    s      -0.000004     -0.000004     -0.000010      0.000000
    266 O1    s       0.000010      0.000002     -0.000037      0.000000
    267 O1    s      -0.000003     -0.000004     -0.000004      0.000000
    268 O1    s      -0.000042     -0.000015      0.000022      0.000000
    269 O1    s      -0.000037      0.000028     -0.000005      0.000000
    270 O1    s      -0.000009      0.000006     -0.000002      0.000000
    271 O1    s      -0.000022     -0.000065      0.000110      0.000000
    272 O1    s       0.000006     -0.000013     -0.000001      0.000000
    273 O1    s       0.000005     -0.000011      0.000051      0.000000
    274 O1    s       0.000010     -0.000008     -0.000005      0.000000
    275 O1    s       0.000010     -0.000006     -0.000015      0.000000
    276 O1    s       0.000000      0.000013     -0.000008      0.000000
    277 O1    s       0.000004      0.000016     -0.000023      0.000000
    278 O1    s       0.000009      0.000002     -0.000010      0.000000
    279 O1    s      -0.000001      0.000019     -0.000002      0.000000
    280 O1    s      -0.000007      0.000021     -0.000002      0.000000
    281 O1    s      -0.000006      0.000013      0.000001      0.000000
    282 O1    s      -0.000002      0.000002      0.000005      0.000000
    283 O1    s      -0.000019      0.000012     -0.000009      0.000000
    284 O1    s       0.000005     -0.000010     -0.000008      0.000000
    285 O1    s      -0.000005     -0.000006      0.000003      0.000000
    286 O1    s       0.000011     -0.000013      0.000004      0.000000
    287 O1    s       0.000008     -0.000001     -0.000005      0.000000
    288 O1    s      -0.000004      0.000006     -0.000028      0.000000
    289 O1    s       0.000006      0.000013      0.000038      0.000000
    290 O1    s       0.000010     -0.000007      0.000002      0.000000
    291 O1    s      -0.000019      0.000010     -0.000015      0.000000
    292 O1    s      -0.000004      0.000009     -0.000021      0.000000
    293 O1    s       0.000012     -0.000017     -0.000009      0.000000
    294 O1    s      -0.000003     -0.000003      0.000003      0.000000
    295 O1    s      -0.000033      0.000055      0.000078      0.000000
    296 O1    s      -0.000005      0.000000      0.000018      0.000000
    297 O1    s      -0.000006     -0.000001     -0.000013      0.000000
    298 O1    s       0.000045     -0.000061     -0.000103      0.000000
    299 O1    s       0.000008     -0.000007     -0.000010      0.000000
    300 O1    s       0.000064     -0.000080     -0.000006      0.000000
    301 O1    s       0.000007     -0.000008     -0.000012      0.000000
    302 O1    s      -0.000008     -0.000004     -0.000017      0.000000
    303 O1    s       0.000010     -0.000017      0.000002      0.000000
[...]
    391 O1    s      -0.000001     -0.000007     -0.000002      0.000000
    392 O1    s      -0.000006      0.000002     -0.000008      0.000000
    393 O1    s       0.000007     -0.000009      0.000033      0.000000
    394 O1    s      -0.000005      0.000012      0.000012      0.000000
    395 O1    s       0.000007     -0.000007      0.000001      0.000000
    396 O1    s      -0.000022      0.000024     -0.000017      0.000000
    397 O1    s       0.000007     -0.000012      0.000002      0.000000
    398 O1    s       0.000003      0.000002     -0.000010      0.000000
    399 O1    s      -0.000002     -0.000000     -0.000009      0.000000
    400 O1    s       0.000015     -0.000043      0.000061      0.000000
    401 O1    s       0.000003     -0.000001      0.000008      0.000000
    402 O1    s       0.000006     -0.000016     -0.000001      0.000000
    403 O1    s      -0.000005     -0.000024      0.000009      0.000000
    404 O1    s      -0.000002      0.000002      0.000005      0.000000
    405 O1    s       0.000038      0.000047      0.000012      0.000000
  Maximum abs         0.000457      0.000486      0.000255      0.000000

  Time to end of optimisation =      13.5352 seconds

  Timing analysis for GULP :

  Task / Subroutine                                          Time (Seconds)
  Calculation of reciprocal space energy and derivatives          0.4078
  Calculation of real space energy and derivatives                5.6692
  Calculation of three-body energy and derivatives                0.0005

  Dump file written as out.res
  CIF file written as out.cif

  Job Finished at 23:06.55 17th December   2016